&inputpp
   prefix='mx2',
   outdir = 'dout/'
   filplot = 'V_d.dat'
   plot_num= 1
/
&plot
/
