
&control
   calculation = 'scf'
   prefix='mx2',
   pseudo_dir = '.',
   outdir='dout/'
/
&system
   ibrav=  0, 
   A=3.186000
   nat=  107, ntyp= 5,
   ecutwfc=40.0,
   occupations='smearing'
   smearing='gaussian'
   degauss=0.01
   assume_isolated='2D'
/
&electrons
   diagonalization='david'
   mixing_mode = 'plain'
   mixing_beta = 0.1
   conv_thr =  1.0d-6
/


ATOMIC_SPECIES
Mo  95.96 Mo.upf
S   32.06  S.upf

K_POINTS gamma

CELL_PARAMETERS alat
      6.0000000000       0.0000000000       0.0000000000
     -3.0000000000       5.1961524227       0.0000000000
      0.0000000000       0.0000000000       8.0000000000

ATOMIC_POSITIONS (crystal)
Mo           -0.0558846049       -0.1113808087        0.5007976109
S            -0.0000757660        0.0001302412        0.5620487262
S             0.0002005552       -0.0001348198        0.4394318177
Mo           -0.0554644702        0.0555898199        0.5004753493
S             0.0004568804        0.1671308261        0.5616077416
S             0.0002672970        0.1666394976        0.4389938885
Mo           -0.0553784017        0.2223375410        0.5001634610
S             0.0004349293        0.3333682373        0.5616103531
S             0.0002283631        0.3336747679        0.4390015338
Mo           -0.0555060311        0.3889882115        0.5004940665
S            -0.0000783903        0.4998433992        0.5620509046
S             0.0001788668        0.5003578599        0.4394356973
Mo           -0.0558922732        0.5555429322        0.5007974640
S            -0.0002642812        0.6665574182        0.5622098203
S            -0.0000634647        0.6666872503        0.4395006765
Mo           -0.0559023029        0.7220701296        0.5007994539
S            -0.0002682551        0.8332114107        0.5622103336
S            -0.0000664611        0.8332830941        0.4395018958
Mo            0.1110813158       -0.1110732256        0.5008573299
S             0.1668106643        0.0002685555        0.5622120218
S             0.1667391880        0.0000677309        0.4395004107
Mo            0.1114365482        0.0559138683        0.5007987313
S             0.1679050276        0.1679960494        0.5617723350
S             0.1670118923        0.1666465416        0.4391021104
Mo            0.1117857883        0.2226288837        0.5002209711
S             0.1692625970        0.3346511690        0.5608077484
S             0.1667398256        0.3333900141        0.4384931699
Mo            0.1117722894        0.3891882840        0.5002208755
S             0.1679127362        0.4999358827        0.5617697588
S             0.1670195942        0.5003908669        0.4391023816
Mo            0.1114350770        0.5555429975        0.5007974281
S             0.1668216491        0.6665573610        0.5622096772
S             0.1667506776        0.6666872825        0.4395007953
Mo            0.1110854258        0.7221707757        0.5008564583
S             0.1666690192        0.8333380639        0.5621858772
S             0.1666697448        0.8333392490        0.4394823477
Mo            0.2778457834       -0.1110731301        0.5008572472
S             0.3334579496        0.0002686570        0.5622121482
S             0.3333288476        0.0000677541        0.4395003006
Mo            0.2779528511        0.0559054414        0.5007993116
S             0.3339879300        0.1679754659        0.5617480300
S             0.3332699931        0.1665396985        0.4390942550
Mo            0.2788383630        0.2233430945        0.5000126821
S             0.3383098582        0.3383891113        0.5597476174
S             0.3343491365        0.3330421973        0.4368891064
Mo            0.2801234492        0.3900772734        0.4984654856
S             0.3383299469        0.4999528309        0.5597480153
S             0.3343653546        0.5013396941        0.4368889674
Mo            0.2788581086        0.5555275853        0.5000130255
S             0.3340268703        0.6660528805        0.5617463125
S             0.3333087733        0.6667698976        0.4390980957
Mo            0.2779725261        0.7220703082        0.5007994211
S             0.3334797577        0.8332114227        0.5622103268
S             0.3333498446        0.8332833221        0.4395019351
Mo            0.4445038663       -0.1113805348        0.5007975553
S             0.5002060960        0.0001303272        0.5620486913
S             0.4996646865       -0.0001347688        0.4394319900
Mo            0.4444775295        0.0559138384        0.5007987329
S             0.5000911284        0.1679961429        0.5617723888
S             0.4996347402        0.1666464146        0.4391021374
Mo            0.4445049371        0.2233430878        0.5000127002
S             0.5000792224        0.3383889122        0.5597475842
S             0.4986929780        0.3330421152        0.4368890476
Mo            0.4461431014        0.3922861444        0.4966049389
S             0.5000109193        0.5000221613        0.4347119053
Mo            0.4461625005        0.5539051413        0.4966047269
S             0.5001152043        0.6617544485        0.5597465136
S             0.4987281381        0.6657127919        0.4368917690
Mo            0.4445513290        0.7212314984        0.5000131064
S             0.5001621317        0.8321918849        0.5617661758
S             0.4996803432        0.8330663809        0.4390998184
Mo            0.6108962508       -0.1116487042        0.5002019482
S             0.6667787449       -0.0002729662        0.5615417312
S             0.6663316879       -0.0001387058        0.4389339282
Mo            0.6110542433        0.0555897711        0.5004753087
S             0.6666739652        0.1671308778        0.5616077983
S             0.6663721780        0.1666393359        0.4389940617
Mo            0.6108430654        0.2226287622        0.5002211727
S             0.6653882400        0.3346510143        0.5608078670
S             0.6666499391        0.3333897639        0.4384932333
Mo            0.6099536122        0.3900770666        0.4984654639
S             0.6616226795        0.4999526040        0.5597480072
S             0.6669740444        0.5013394686        0.4368890294
Mo            0.6077422570        0.5539049185        0.4966048369
S             0.6616387443        0.6617541755        0.5597465206
S             0.6669842486        0.6657127184        0.4368918847
Mo            0.6099882485        0.7199769767        0.4984655133
S             0.6654400235        0.8308802778        0.5607947606
S             0.6666874814        0.8333751336        0.4384880672
Mo            0.7774548709       -0.1116488201        0.5002018742
S             0.8329485870       -0.0002729295        0.5615416514
S             0.8335296067       -0.0001388108        0.4389338541
Mo            0.7777777778        0.0555555556        0.5000000000    0   0   0
S             0.8333333333        0.1666666667        0.5613445543    0   0   0
S             0.8333333333        0.1666666667        0.4386554457    0   0   0
Mo            0.7777159286        0.2223374986        0.5001634068
S             0.8329331804        0.3333681922        0.5616103909
S             0.8334462132        0.3336745242        0.4390015877
Mo            0.7774156192        0.3891879207        0.5002210931
S             0.8320228506        0.4999357440        0.5617697853
S             0.8333710442        0.5003907206        0.4391025616
Mo            0.7766693195        0.5555274255        0.5000132227
S             0.8320258939        0.6660526172        0.5617463706
S             0.8334610393        0.6667696550        0.4390980591
Mo            0.7766799378        0.7212312135        0.5000132451
S             0.8320296649        0.8321916757        0.5617661227
S             0.8333857497        0.8330660787        0.4390998573
