&control
   calculation = 'bands'
   verbosity='high'
   restart_mode='from_scratch',
   prefix='mos2',
   tstress = .true.
   tprnfor = .true.
   pseudo_dir = '.',
   outdir='dout/'
/
&system
   ibrav=  0, 
   A=3.19
   nat=  3, ntyp= 2,
   ecutwfc =60.0,
nspin=4
noncolin=.true.
lspinorb=.true.
   nbnd=40
   !occupations='smearing'
   !smearing='gaussian'
   !degauss=0.001
/




&electrons
 ! electron_maxstep=2
   diagonalization='david'
   mixing_mode = 'plain'
   mixing_beta = 0.7
   conv_thr =  1.0d-6
/



&cell
cell_dofree='2Dxy'
/
&ions
/




ATOMIC_SPECIES
Mo 95.96 Mo_ONCV_PBE_FR-1.0.upf
S  32.06 S_ONCV_PBE_FR-1.1.upf




CELL_PARAMETERS alat
 1.00000000 0.00000000 0.00000000
-0.50000000 0.86602540 0.00000000
 0.00000000 0.00000000 8.00000000

ATOMIC_POSITIONS crystal
Mo            0.0000000000        0.0000000000        0.5000000000
S             0.3333333300        0.66666666        0.5617000000
S             0.3333333300        0.66666666        0.4383000000


K_POINTS crystal
87
  0.277777777778   0.277777777778   0.000000000000  1.0 
  0.277777777778   0.722222222222   0.000000000000  1.0 
  0.277777777778   0.777777777778   0.000000000000  1.0 
  0.277777777778   0.833333333333   0.000000000000  1.0 
  0.277777777778   0.888888888889   0.000000000000  1.0 
  0.277777777778   0.944444444444   0.000000000000  1.0 
  0.277777777778   0.000000000000   0.000000000000  1.0 
  0.277777777778   0.055555555556   0.000000000000  1.0 
  0.277777777778   0.111111111111   0.000000000000  1.0 
  0.277777777778   0.166666666667   0.000000000000  1.0 
  0.277777777778   0.222222222222   0.000000000000  1.0 
  0.333333333333   0.944444444444   0.000000000000  1.0 
  0.333333333333   0.000000000000   0.000000000000  1.0 
  0.333333333333   0.055555555556   0.000000000000  1.0 
  0.333333333333   0.111111111111   0.000000000000  1.0 
  0.333333333333   0.166666666667   0.000000000000  1.0 
  0.333333333333   0.222222222222   0.000000000000  1.0 
  0.722222222222   0.722222222222   0.000000000000  1.0 
  0.722222222222   0.777777777778   0.000000000000  1.0 
  0.722222222222   0.833333333333   0.000000000000  1.0 
  0.722222222222   0.888888888889   0.000000000000  1.0 
  0.722222222222   0.944444444444   0.000000000000  1.0 
  0.722222222222   0.000000000000   0.000000000000  1.0 
  0.777777777778   0.277777777778   0.000000000000  1.0 
  0.777777777778   0.666666666667   0.000000000000  1.0 
  0.777777777778   0.722222222222   0.000000000000  1.0 
  0.777777777778   0.777777777778   0.000000000000  1.0 
  0.777777777778   0.833333333333   0.000000000000  1.0 
  0.777777777778   0.888888888889   0.000000000000  1.0 
  0.777777777778   0.944444444444   0.000000000000  1.0 
  0.777777777778   0.000000000000   0.000000000000  1.0 
  0.777777777778   0.055555555556   0.000000000000  1.0 
  0.777777777778   0.111111111111   0.000000000000  1.0 
  0.777777777778   0.166666666667   0.000000000000  1.0 
  0.777777777778   0.222222222222   0.000000000000  1.0 
  0.833333333333   0.277777777778   0.000000000000  1.0 
  0.833333333333   0.666666666667   0.000000000000  1.0 
  0.833333333333   0.722222222222   0.000000000000  1.0 
  0.833333333333   0.777777777778   0.000000000000  1.0 
  0.833333333333   0.833333333333   0.000000000000  1.0 
  0.833333333333   0.888888888889   0.000000000000  1.0 
  0.833333333333   0.944444444444   0.000000000000  1.0 
  0.833333333333   0.000000000000   0.000000000000  1.0 
  0.833333333333   0.055555555556   0.000000000000  1.0 
  0.833333333333   0.111111111111   0.000000000000  1.0 
  0.833333333333   0.166666666667   0.000000000000  1.0 
  0.833333333333   0.222222222222   0.000000000000  1.0 
  0.888888888889   0.944444444444   0.000000000000  1.0 
  0.888888888889   0.000000000000   0.000000000000  1.0 
  0.888888888889   0.055555555556   0.000000000000  1.0 
  0.888888888889   0.111111111111   0.000000000000  1.0 
  0.888888888889   0.166666666667   0.000000000000  1.0 
  0.888888888889   0.222222222222   0.000000000000  1.0 
  0.166666666667   0.777777777778   0.000000000000  1.0 
  0.166666666667   0.833333333333   0.000000000000  1.0 
  0.166666666667   0.888888888889   0.000000000000  1.0 
  0.166666666667   0.944444444444   0.000000000000  1.0 
  0.166666666667   0.000000000000   0.000000000000  1.0 
  0.222222222222   0.277777777778   0.000000000000  1.0 
  0.222222222222   0.722222222222   0.000000000000  1.0 
  0.222222222222   0.777777777778   0.000000000000  1.0 
  0.222222222222   0.833333333333   0.000000000000  1.0 
  0.222222222222   0.888888888889   0.000000000000  1.0 
  0.222222222222   0.944444444444   0.000000000000  1.0 
  0.222222222222   0.000000000000   0.000000000000  1.0 
  0.222222222222   0.055555555556   0.000000000000  1.0 
  0.222222222222   0.111111111111   0.000000000000  1.0 
  0.222222222222   0.166666666667   0.000000000000  1.0 
  0.222222222222   0.222222222222   0.000000000000  1.0 
  0.277777777778   0.333333333333   0.000000000000  1.0 
  0.277777777778   0.666666666667   0.000000000000  1.0 
  0.333333333333   0.277777777778   0.000000000000  1.0 
  0.722222222222   0.666666666667   0.000000000000  1.0 
  0.777777777778   0.333333333333   0.000000000000  1.0 
  0.777777777778   0.611111111111   0.000000000000  1.0 
  0.833333333333   0.333333333333   0.000000000000  1.0 
  0.833333333333   0.611111111111   0.000000000000  1.0 
  0.888888888889   0.277777777778   0.000000000000  1.0 
  0.166666666667   0.722222222222   0.000000000000  1.0 
  0.222222222222   0.333333333333   0.000000000000  1.0 
  0.222222222222   0.666666666667   0.000000000000  1.0 
  0.277777777778   0.388888888889   0.000000000000  1.0 
  0.277777777778   0.611111111111   0.000000000000  1.0 
  0.333333333333   0.333333333333   0.000000000000  1.0 
  0.166666666667   0.666666666667   0.000000000000  1.0 
  0.222222222222   0.388888888889   0.000000000000  1.0 
  0.222222222222   0.611111111111   0.000000000000  1.0 
