
&control
   calculation = 'scf'
   prefix='mx2',
   pseudo_dir = '.',
   outdir='dout/'
/
&system
   ibrav=  0, 
   A=3.186000
   nat=  108, ntyp= 2,
   ecutwfc=40.0,
   occupations='smearing'
   smearing='gaussian'
   degauss=0.01
   assume_isolated='2D'
/
&electrons
   diagonalization='david'
   mixing_mode = 'plain'
   mixing_beta = 0.1
   conv_thr =  1.0d-6
/


ATOMIC_SPECIES
Mo  95.96 Mo.upf
S   32.06  S.upf

K_POINTS gamma

CELL_PARAMETERS alat
      6.0000000000       0.0000000000       0.0000000000
     -3.0000000000       5.1961524227       0.0000000000
      0.0000000000       0.0000000000       8.0000000000

ATOMIC_POSITIONS (crystal)
Mo           -0.0555555556       -0.1111111111        0.5000000000
S             0.0000000000        0.0000000000        0.5613445543
S             0.0000000000        0.0000000000        0.4386554457
Mo           -0.0555555556        0.0555555556        0.5000000000
S             0.0000000000        0.1666666667        0.5613445543
S             0.0000000000        0.1666666667        0.4386554457
Mo           -0.0555555556        0.2222222222        0.5000000000
S             0.0000000000        0.3333333333        0.5613445543
S             0.0000000000        0.3333333333        0.4386554457
Mo           -0.0555555556        0.3888888889        0.5000000000
S             0.0000000000        0.5000000000        0.5613445543
S             0.0000000000        0.5000000000        0.4386554457
Mo           -0.0555555556        0.5555555556        0.5000000000
S            -0.0000000000        0.6666666667        0.5613445543
S            -0.0000000000        0.6666666667        0.4386554457
Mo           -0.0555555556        0.7222222222        0.5000000000
S             0.0000000000        0.8333333333        0.5613445543
S             0.0000000000        0.8333333333        0.4386554457
Mo            0.1111111111       -0.1111111111        0.5000000000
S             0.1666666667        0.0000000000        0.5613445543
S             0.1666666667        0.0000000000        0.4386554457
Mo            0.1111111111        0.0555555556        0.5000000000
S             0.1666666667        0.1666666667        0.5613445543
S             0.1666666667        0.1666666667        0.4386554457
Mo            0.1111111111        0.2222222222        0.5000000000
S             0.1666666667        0.3333333333        0.5613445543
S             0.1666666667        0.3333333333        0.4386554457
Mo            0.1111111111        0.3888888889        0.5000000000
S             0.1666666667        0.5000000000        0.5613445543
S             0.1666666667        0.5000000000        0.4386554457
Mo            0.1111111111        0.5555555556        0.5000000000
S             0.1666666667        0.6666666667        0.5613445543
S             0.1666666667        0.6666666667        0.4386554457
Mo            0.1111111111        0.7222222222        0.5000000000
S             0.1666666667        0.8333333333        0.5613445543
S             0.1666666667        0.8333333333        0.4386554457
Mo            0.2777777778       -0.1111111111        0.5000000000
S             0.3333333333        0.0000000000        0.5613445543
S             0.3333333333        0.0000000000        0.4386554457
Mo            0.2777777778        0.0555555556        0.5000000000
S             0.3333333333        0.1666666667        0.5613445543
S             0.3333333333        0.1666666667        0.4386554457
Mo            0.2777777778        0.2222222222        0.5000000000
S             0.3333333333        0.3333333333        0.5613445543
S             0.3333333333        0.3333333333        0.4386554457
Mo            0.2777777778        0.3888888889        0.5000000000
S             0.3333333333        0.5000000000        0.5613445543
S             0.3333333333        0.5000000000        0.4386554457
Mo            0.2777777778        0.5555555556        0.5000000000
S             0.3333333333        0.6666666667        0.5613445543
S             0.3333333333        0.6666666667        0.4386554457
Mo            0.2777777778        0.7222222222        0.5000000000
S             0.3333333333        0.8333333333        0.5613445543
S             0.3333333333        0.8333333333        0.4386554457
Mo            0.4444444444       -0.1111111111        0.5000000000
S             0.5000000000        0.0000000000        0.5613445543
S             0.5000000000        0.0000000000        0.4386554457
Mo            0.4444444444        0.0555555556        0.5000000000
S             0.5000000000        0.1666666667        0.5613445543
S             0.5000000000        0.1666666667        0.4386554457
Mo            0.4444444444        0.2222222222        0.5000000000
S             0.5000000000        0.3333333333        0.5613445543
S             0.5000000000        0.3333333333        0.4386554457
Mo            0.4444444444        0.3888888889        0.5000000000
S             0.5000000000        0.5000000000        0.5613445543
S             0.5000000000        0.5000000000        0.4386554457
Mo            0.4444444444        0.5555555556        0.5000000000
S             0.5000000000        0.6666666667        0.5613445543
S             0.5000000000        0.6666666667        0.4386554457
Mo            0.4444444444        0.7222222222        0.5000000000
S             0.5000000000        0.8333333333        0.5613445543
S             0.5000000000        0.8333333333        0.4386554457
Mo            0.6111111111       -0.1111111111        0.5000000000
S             0.6666666667        0.0000000000        0.5613445543
S             0.6666666667        0.0000000000        0.4386554457
Mo            0.6111111111        0.0555555556        0.5000000000
S             0.6666666667        0.1666666667        0.5613445543
S             0.6666666667        0.1666666667        0.4386554457
Mo            0.6111111111        0.2222222222        0.5000000000
S             0.6666666667        0.3333333333        0.5613445543
S             0.6666666667        0.3333333333        0.4386554457
Mo            0.6111111111        0.3888888889        0.5000000000
S             0.6666666667        0.5000000000        0.5613445543
S             0.6666666667        0.5000000000        0.4386554457
Mo            0.6111111111        0.5555555556        0.5000000000
S             0.6666666667        0.6666666667        0.5613445543
S             0.6666666667        0.6666666667        0.4386554457
Mo            0.6111111111        0.7222222222        0.5000000000
S             0.6666666667        0.8333333333        0.5613445543
S             0.6666666667        0.8333333333        0.4386554457
Mo            0.7777777778       -0.1111111111        0.5000000000
S             0.8333333333        0.0000000000        0.5613445543
S             0.8333333333        0.0000000000        0.4386554457
Mo            0.7777777778        0.0555555556        0.5000000000    0   0   0
S             0.8333333333        0.1666666667        0.5613445543    0   0   0
S             0.8333333333        0.1666666667        0.4386554457    0   0   0
Mo            0.7777777778        0.2222222222        0.5000000000
S             0.8333333333        0.3333333333        0.5613445543
S             0.8333333333        0.3333333333        0.4386554457
Mo            0.7777777778        0.3888888889        0.5000000000
S             0.8333333333        0.5000000000        0.5613445543
S             0.8333333333        0.5000000000        0.4386554457
Mo            0.7777777778        0.5555555556        0.5000000000
S             0.8333333333        0.6666666667        0.5613445543
S             0.8333333333        0.6666666667        0.4386554457
Mo            0.7777777778        0.7222222222        0.5000000000
S             0.8333333333        0.8333333333        0.5613445543
S             0.8333333333        0.8333333333        0.4386554457
