&control
   calculation = 'scf'
   verbosity='high'
   restart_mode='from_scratch',
   prefix='mos2',
   tstress = .true.
   tprnfor = .true.
   pseudo_dir = '.',
   outdir='dout/'
/
&system
   ibrav=  0, 
   A=3.19
   nat=  3, ntyp= 2,
   ecutwfc =60.0,
   noncolin=.true.
   lspinorb=.true.
   nbnd=40
/

&electrons
   diagonalization='david'
   mixing_mode = 'plain'
   mixing_beta = 0.7
   conv_thr =  1.0d-6
/


ATOMIC_SPECIES
Mo 95.96 Mo_ONCV_PBE_FR-1.0.upf
S  32.06 S_ONCV_PBE_FR-1.1.upf


CELL_PARAMETERS alat
 1.00000000 0.00000000 0.00000000
-0.50000000 0.86602540 0.00000000
 0.00000000 0.00000000 8.00000000

ATOMIC_POSITIONS crystal
Mo            0.0000000000        0.00000000        0.5000000000
S             0.3333333300        0.66666666        0.5617000000
S             0.3333333300        0.66666666        0.4383000000


K_POINTS automatic
6 6 1 0 0 0
