&control
   calculation = 'bands'
   prefix='mx2',
   pseudo_dir = '.',
   outdir='dout/'
/
&system
   ibrav=  0,
   A=3.186
   nat=  3, ntyp= 5,
   ecutwfc= 40.0,
   occupations='smearing'
   smearing='gaussian'
   degauss=0.01
   assume_isolated='2D'
   nbnd = 17
/
&electrons
   diagonalization='david'
   mixing_mode = 'plain'
   mixing_beta = 0.1
   conv_thr =  1.0e-6
/
ATOMIC_SPECIES
Mo  95.96 Mo.upf
S   32.06  S.upf

CELL_PARAMETERS alat
 1.0000000000 0.0000000000 0.0000000000
-0.5000000000 0.8660254038 0.0000000000
 0.0000000000 0.0000000000 8.0000000000

ATOMIC_POSITIONS crystal
Mo             0.6666666666        0.3333333333        0.5000000000
S              0.0000000000        0.0000000000        0.5613878842
S              0.0000000000        0.0000000000        0.4386121158



K_POINTS crystal
144
       0.000000000000       0.000000000000       0.000000000000   6.944444444444e-03
       0.000000000000       0.083333333333       0.000000000000   6.944444444444e-03
       0.000000000000       0.166666666667       0.000000000000   6.944444444444e-03
       0.000000000000       0.250000000000       0.000000000000   6.944444444444e-03
       0.000000000000       0.333333333333       0.000000000000   6.944444444444e-03
       0.000000000000       0.416666666667       0.000000000000   6.944444444444e-03
       0.000000000000       0.500000000000       0.000000000000   6.944444444444e-03
       0.000000000000       0.583333333333       0.000000000000   6.944444444444e-03
       0.000000000000       0.666666666667       0.000000000000   6.944444444444e-03
       0.000000000000       0.750000000000       0.000000000000   6.944444444444e-03
       0.000000000000       0.833333333333       0.000000000000   6.944444444444e-03
       0.000000000000       0.916666666667       0.000000000000   6.944444444444e-03
       0.083333333333       0.000000000000       0.000000000000   6.944444444444e-03
       0.083333333333       0.083333333333       0.000000000000   6.944444444444e-03
       0.083333333333       0.166666666667       0.000000000000   6.944444444444e-03
       0.083333333333       0.250000000000       0.000000000000   6.944444444444e-03
       0.083333333333       0.333333333333       0.000000000000   6.944444444444e-03
       0.083333333333       0.416666666667       0.000000000000   6.944444444444e-03
       0.083333333333       0.500000000000       0.000000000000   6.944444444444e-03
       0.083333333333       0.583333333333       0.000000000000   6.944444444444e-03
       0.083333333333       0.666666666667       0.000000000000   6.944444444444e-03
       0.083333333333       0.750000000000       0.000000000000   6.944444444444e-03
       0.083333333333       0.833333333333       0.000000000000   6.944444444444e-03
       0.083333333333       0.916666666667       0.000000000000   6.944444444444e-03
       0.166666666667       0.000000000000       0.000000000000   6.944444444444e-03
       0.166666666667       0.083333333333       0.000000000000   6.944444444444e-03
       0.166666666667       0.166666666667       0.000000000000   6.944444444444e-03
       0.166666666667       0.250000000000       0.000000000000   6.944444444444e-03
       0.166666666667       0.333333333333       0.000000000000   6.944444444444e-03
       0.166666666667       0.416666666667       0.000000000000   6.944444444444e-03
       0.166666666667       0.500000000000       0.000000000000   6.944444444444e-03
       0.166666666667       0.583333333333       0.000000000000   6.944444444444e-03
       0.166666666667       0.666666666667       0.000000000000   6.944444444444e-03
       0.166666666667       0.750000000000       0.000000000000   6.944444444444e-03
       0.166666666667       0.833333333333       0.000000000000   6.944444444444e-03
       0.166666666667       0.916666666667       0.000000000000   6.944444444444e-03
       0.250000000000       0.000000000000       0.000000000000   6.944444444444e-03
       0.250000000000       0.083333333333       0.000000000000   6.944444444444e-03
       0.250000000000       0.166666666667       0.000000000000   6.944444444444e-03
       0.250000000000       0.250000000000       0.000000000000   6.944444444444e-03
       0.250000000000       0.333333333333       0.000000000000   6.944444444444e-03
       0.250000000000       0.416666666667       0.000000000000   6.944444444444e-03
       0.250000000000       0.500000000000       0.000000000000   6.944444444444e-03
       0.250000000000       0.583333333333       0.000000000000   6.944444444444e-03
       0.250000000000       0.666666666667       0.000000000000   6.944444444444e-03
       0.250000000000       0.750000000000       0.000000000000   6.944444444444e-03
       0.250000000000       0.833333333333       0.000000000000   6.944444444444e-03
       0.250000000000       0.916666666667       0.000000000000   6.944444444444e-03
       0.333333333333       0.000000000000       0.000000000000   6.944444444444e-03
       0.333333333333       0.083333333333       0.000000000000   6.944444444444e-03
       0.333333333333       0.166666666667       0.000000000000   6.944444444444e-03
       0.333333333333       0.250000000000       0.000000000000   6.944444444444e-03
       0.333333333333       0.333333333333       0.000000000000   6.944444444444e-03
       0.333333333333       0.416666666667       0.000000000000   6.944444444444e-03
       0.333333333333       0.500000000000       0.000000000000   6.944444444444e-03
       0.333333333333       0.583333333333       0.000000000000   6.944444444444e-03
       0.333333333333       0.666666666667       0.000000000000   6.944444444444e-03
       0.333333333333       0.750000000000       0.000000000000   6.944444444444e-03
       0.333333333333       0.833333333333       0.000000000000   6.944444444444e-03
       0.333333333333       0.916666666667       0.000000000000   6.944444444444e-03
       0.416666666667       0.000000000000       0.000000000000   6.944444444444e-03
       0.416666666667       0.083333333333       0.000000000000   6.944444444444e-03
       0.416666666667       0.166666666667       0.000000000000   6.944444444444e-03
       0.416666666667       0.250000000000       0.000000000000   6.944444444444e-03
       0.416666666667       0.333333333333       0.000000000000   6.944444444444e-03
       0.416666666667       0.416666666667       0.000000000000   6.944444444444e-03
       0.416666666667       0.500000000000       0.000000000000   6.944444444444e-03
       0.416666666667       0.583333333333       0.000000000000   6.944444444444e-03
       0.416666666667       0.666666666667       0.000000000000   6.944444444444e-03
       0.416666666667       0.750000000000       0.000000000000   6.944444444444e-03
       0.416666666667       0.833333333333       0.000000000000   6.944444444444e-03
       0.416666666667       0.916666666667       0.000000000000   6.944444444444e-03
       0.500000000000       0.000000000000       0.000000000000   6.944444444444e-03
       0.500000000000       0.083333333333       0.000000000000   6.944444444444e-03
       0.500000000000       0.166666666667       0.000000000000   6.944444444444e-03
       0.500000000000       0.250000000000       0.000000000000   6.944444444444e-03
       0.500000000000       0.333333333333       0.000000000000   6.944444444444e-03
       0.500000000000       0.416666666667       0.000000000000   6.944444444444e-03
       0.500000000000       0.500000000000       0.000000000000   6.944444444444e-03
       0.500000000000       0.583333333333       0.000000000000   6.944444444444e-03
       0.500000000000       0.666666666667       0.000000000000   6.944444444444e-03
       0.500000000000       0.750000000000       0.000000000000   6.944444444444e-03
       0.500000000000       0.833333333333       0.000000000000   6.944444444444e-03
       0.500000000000       0.916666666667       0.000000000000   6.944444444444e-03
       0.583333333333       0.000000000000       0.000000000000   6.944444444444e-03
       0.583333333333       0.083333333333       0.000000000000   6.944444444444e-03
       0.583333333333       0.166666666667       0.000000000000   6.944444444444e-03
       0.583333333333       0.250000000000       0.000000000000   6.944444444444e-03
       0.583333333333       0.333333333333       0.000000000000   6.944444444444e-03
       0.583333333333       0.416666666667       0.000000000000   6.944444444444e-03
       0.583333333333       0.500000000000       0.000000000000   6.944444444444e-03
       0.583333333333       0.583333333333       0.000000000000   6.944444444444e-03
       0.583333333333       0.666666666667       0.000000000000   6.944444444444e-03
       0.583333333333       0.750000000000       0.000000000000   6.944444444444e-03
       0.583333333333       0.833333333333       0.000000000000   6.944444444444e-03
       0.583333333333       0.916666666667       0.000000000000   6.944444444444e-03
       0.666666666667       0.000000000000       0.000000000000   6.944444444444e-03
       0.666666666667       0.083333333333       0.000000000000   6.944444444444e-03
       0.666666666667       0.166666666667       0.000000000000   6.944444444444e-03
       0.666666666667       0.250000000000       0.000000000000   6.944444444444e-03
       0.666666666667       0.333333333333       0.000000000000   6.944444444444e-03
       0.666666666667       0.416666666667       0.000000000000   6.944444444444e-03
       0.666666666667       0.500000000000       0.000000000000   6.944444444444e-03
       0.666666666667       0.583333333333       0.000000000000   6.944444444444e-03
       0.666666666667       0.666666666667       0.000000000000   6.944444444444e-03
       0.666666666667       0.750000000000       0.000000000000   6.944444444444e-03
       0.666666666667       0.833333333333       0.000000000000   6.944444444444e-03
       0.666666666667       0.916666666667       0.000000000000   6.944444444444e-03
       0.750000000000       0.000000000000       0.000000000000   6.944444444444e-03
       0.750000000000       0.083333333333       0.000000000000   6.944444444444e-03
       0.750000000000       0.166666666667       0.000000000000   6.944444444444e-03
       0.750000000000       0.250000000000       0.000000000000   6.944444444444e-03
       0.750000000000       0.333333333333       0.000000000000   6.944444444444e-03
       0.750000000000       0.416666666667       0.000000000000   6.944444444444e-03
       0.750000000000       0.500000000000       0.000000000000   6.944444444444e-03
       0.750000000000       0.583333333333       0.000000000000   6.944444444444e-03
       0.750000000000       0.666666666667       0.000000000000   6.944444444444e-03
       0.750000000000       0.750000000000       0.000000000000   6.944444444444e-03
       0.750000000000       0.833333333333       0.000000000000   6.944444444444e-03
       0.750000000000       0.916666666667       0.000000000000   6.944444444444e-03
       0.833333333333       0.000000000000       0.000000000000   6.944444444444e-03
       0.833333333333       0.083333333333       0.000000000000   6.944444444444e-03
       0.833333333333       0.166666666667       0.000000000000   6.944444444444e-03
       0.833333333333       0.250000000000       0.000000000000   6.944444444444e-03
       0.833333333333       0.333333333333       0.000000000000   6.944444444444e-03
       0.833333333333       0.416666666667       0.000000000000   6.944444444444e-03
       0.833333333333       0.500000000000       0.000000000000   6.944444444444e-03
       0.833333333333       0.583333333333       0.000000000000   6.944444444444e-03
       0.833333333333       0.666666666667       0.000000000000   6.944444444444e-03
       0.833333333333       0.750000000000       0.000000000000   6.944444444444e-03
       0.833333333333       0.833333333333       0.000000000000   6.944444444444e-03
       0.833333333333       0.916666666667       0.000000000000   6.944444444444e-03
       0.916666666667       0.000000000000       0.000000000000   6.944444444444e-03
       0.916666666667       0.083333333333       0.000000000000   6.944444444444e-03
       0.916666666667       0.166666666667       0.000000000000   6.944444444444e-03
       0.916666666667       0.250000000000       0.000000000000   6.944444444444e-03
       0.916666666667       0.333333333333       0.000000000000   6.944444444444e-03
       0.916666666667       0.416666666667       0.000000000000   6.944444444444e-03
       0.916666666667       0.500000000000       0.000000000000   6.944444444444e-03
       0.916666666667       0.583333333333       0.000000000000   6.944444444444e-03
       0.916666666667       0.666666666667       0.000000000000   6.944444444444e-03
       0.916666666667       0.750000000000       0.000000000000   6.944444444444e-03
       0.916666666667       0.833333333333       0.000000000000   6.944444444444e-03
       0.916666666667       0.916666666667       0.000000000000   6.944444444444e-03
