
&control
    calculation = 'relax'
    restart_mode = 'from_scratch'
    prefix = 'superox'
    outdir = 'dout/'
    pseudo_dir = '../pp/'
    verbosity = 'high'
    tprnfor = .true.
    tstress = .true.
/
&system
    ibrav = 0
    a = 5.43
    !a = 10.856
    ! relaxed a =20.52242571
    nat = 9
    ntyp = 2
    ecutwfc = 40
    occupations = 'smearing'
    degauss = 0.001
    nspin=2
    starting_magnetization(1) = 0.0
    starting_magnetization(2) = 1.0
    starting_magnetization(3) = 0.4
    starting_magnetization(4) = 0.4
/
&electrons
    mixing_beta = 0.2
    conv_thr = 2.0d-6

/
&ions
/

&cell
cell_dofree='ibrav'
/

CELL_PARAMETERS alat
 1.00000000 0.00000000 0.00000000
 0.00000000 1.00000000 0.00000000
 0.00000000 0.00000000 1.00000000


ATOMIC_SPECIES
Si   32.1   Si.pbe-tm-gipaw.UPF
H    1.0    H.pbe-tm-gipaw.UPF



ATOMIC_POSITIONS  angstrom 
H   2.71490000 2.71490000 2.71490000
Si  0.00000000 0.00000000 0.00000000
Si  0.00000000 2.71490000 2.71490000
Si  2.71490000 0.00000000 2.71490000
Si  2.71490000 2.71490000 0.00000000
Si  1.35745000 1.35745000 1.35745000
Si  1.35745000 4.07235000 4.07235000
Si  4.07235000 1.35745000 4.07235000
Si  4.07235000 4.07235000 1.35745000

K_POINTS automatic
1 1 1  0 0 0

