
&control
    calculation = 'relax'
    restart_mode = 'from_scratch'
    prefix = 'superox'
    outdir = 'dout/'
    pseudo_dir = '../pp/'
    verbosity = 'high'
    tprnfor = .true.
    tstress = .true.
/
&system
    ibrav = 0
    !a = 5.43
    a = 10.856
    !a = 16.286
    ! relaxed a =20.52242571
    nat = 64
    ntyp = 2
    ecutwfc = 40
    occupations = 'smearing'
    degauss = 0.001
    nspin=2
    starting_magnetization(1) = 0.0
    starting_magnetization(2) = 1.0
    starting_magnetization(3) = 0.4
    starting_magnetization(4) = 0.4
/
&electrons
    mixing_beta = 0.2
    conv_thr = 2.0d-6

/
&ions
/

&cell
cell_dofree='ibrav'
/

CELL_PARAMETERS alat
 1.00000000 0.00000000 0.00000000
 0.00000000 1.00000000 0.00000000
 0.00000000 0.00000000 1.00000000


ATOMIC_SPECIES
Si   32.1   Si.pbe-tm-gipaw.UPF
H    1.0    H.pbe-tm-gipaw.UPF



ATOMIC_POSITIONS  angstrom 
O   5.42980000 5.42980000 5.42980000
Si  5.42980000 8.14470000 8.14470000
Si  8.14470000 5.42980000 8.14470000
Si  8.14470000 8.14470000 5.42980000
Si  6.78725000 6.78725000 6.78725000
Si  6.78725000 9.50215000 9.50215000
Si  9.50215000 6.78725000 9.50215000
Si  9.50215000 9.50215000 6.78725000
Si  5.42980000 5.42980000 10.85960000
Si  5.42980000 8.14470000 13.57450000
Si  8.14470000 5.42980000 13.57450000
Si  8.14470000 8.14470000 10.85960000
Si  6.78725000 6.78725000 12.21705000
Si  6.78725000 9.50215000 14.93195000
Si  9.50215000 6.78725000 14.93195000
Si  9.50215000 9.50215000 12.21705000
Si  5.42980000 10.85960000 5.42980000
Si  5.42980000 13.57450000 8.14470000
Si  8.14470000 10.85960000 8.14470000
Si  8.14470000 13.57450000 5.42980000
Si  6.78725000 12.21705000 6.78725000
Si  6.78725000 14.93195000 9.50215000
Si  9.50215000 12.21705000 9.50215000
Si  9.50215000 14.93195000 6.78725000
Si  5.42980000 10.85960000 10.85960000
Si  5.42980000 13.57450000 13.57450000
Si  8.14470000 10.85960000 13.57450000
Si  8.14470000 13.57450000 10.85960000
Si  6.78725000 12.21705000 12.21705000
Si  6.78725000 14.93195000 14.93195000
Si  9.50215000 12.21705000 14.93195000
Si  9.50215000 14.93195000 12.21705000
Si  10.85960000 5.42980000 5.42980000
Si  10.85960000 8.14470000 8.14470000
Si  13.57450000 5.42980000 8.14470000
Si  13.57450000 8.14470000 5.42980000
Si  12.21705000 6.78725000 6.78725000
Si  12.21705000 9.50215000 9.50215000
Si  14.93195000 6.78725000 9.50215000
Si  14.93195000 9.50215000 6.78725000
Si  10.85960000 5.42980000 10.85960000
Si  10.85960000 8.14470000 13.57450000
Si  13.57450000 5.42980000 13.57450000
Si  13.57450000 8.14470000 10.85960000
Si  12.21705000 6.78725000 12.21705000
Si  12.21705000 9.50215000 14.93195000
Si  14.93195000 6.78725000 14.93195000
Si  14.93195000 9.50215000 12.21705000
Si  10.85960000 10.85960000 5.42980000
Si  10.85960000 13.57450000 8.14470000
Si  13.57450000 10.85960000 8.14470000
Si  13.57450000 13.57450000 5.42980000
Si  12.21705000 12.21705000 6.78725000
Si  12.21705000 14.93195000 9.50215000
Si  14.93195000 12.21705000 9.50215000
Si  14.93195000 14.93195000 6.78725000
Si  10.85960000 10.85960000 10.85960000
Si  10.85960000 13.57450000 13.57450000
Si  13.57450000 10.85960000 13.57450000
Si  13.57450000 13.57450000 10.85960000
Si  12.21705000 12.21705000 12.21705000
Si  12.21705000 14.93195000 14.93195000
Si  14.93195000 12.21705000 14.93195000
Si  14.93195000 14.93195000 12.21705000

K_POINTS automatic
1 1 1  0 0 0

