&control
   calculation = 'scf'
   verbosity='high'
   restart_mode='from_scratch',
   prefix='mos2_defect',
   pseudo_dir = '/home/x-rg47749/pseudo_dojo_nc_pbe_sr/nc-sr-05_pbe_stringent_upf/',
   outdir='./dout/'
/
&system
   ibrav=  0,
   A=1.0
   nat=  107, ntyp= 2,
   ecutwfc =100.0,
   assume_isolated = '2D',
   occupations = 'smearing',
   smearing = 'gaussian',
   degauss = 0.01
/

&electrons
   diagonalization='david'
   mixing_mode = 'plain'
   mixing_beta = 0.3
   conv_thr =  1.0e-9
/


ATOMIC_SPECIES
Mo 95.96 Mo.upf
S 32.06 S.upf


CELL_PARAMETERS alat
      19.11106007      -0.00000000       0.00000000
      -9.55553003      16.55066351       0.00000000
       0.00000000       0.00000000      24.00000000

ATOMIC_POSITIONS crystal
Mo                   0.6111111111       0.5555555556       0.5000000000
S                    0.5000000000       0.5000000000       0.4348759261
Mo                   0.6111111111       0.7222222222       0.5000000000
S                    0.5000000000       0.6666666667       0.5651240739
S                    0.5000000000       0.6666666667       0.4348759261
Mo                   0.6111111111       0.8888888889       0.5000000000
S                    0.5000000000       0.8333333333       0.5651240739
S                    0.5000000000       0.8333333333       0.4348759261
Mo                   0.6111111111       0.0555555556       0.5000000000
S                    0.5000000000       0.0000000000       0.5651240739
S                    0.5000000000       0.0000000000       0.4348759261
Mo                   0.6111111111       0.2222222222       0.5000000000
S                    0.5000000000       0.1666666667       0.5651240739
S                    0.5000000000       0.1666666667       0.4348759261
Mo                   0.6111111111       0.3888888889       0.5000000000
S                    0.5000000000       0.3333333333       0.5651240739
S                    0.5000000000       0.3333333333       0.4348759261
Mo                   0.7777777778       0.5555555556       0.5000000000
S                    0.6666666667       0.5000000000       0.5651240739
S                    0.6666666667       0.5000000000       0.4348759261
Mo                   0.7777777778       0.7222222222       0.5000000000
S                    0.6666666667       0.6666666667       0.5651240739
S                    0.6666666667       0.6666666667       0.4348759261
Mo                   0.7777777778       0.8888888889       0.5000000000
S                    0.6666666667       0.8333333333       0.5651240739
S                    0.6666666667       0.8333333333       0.4348759261
Mo                   0.7777777778       0.0555555556       0.5000000000
S                    0.6666666667       0.0000000000       0.5651240739
S                    0.6666666667       0.0000000000       0.4348759261
Mo                   0.7777777778       0.2222222222       0.5000000000
S                    0.6666666667       0.1666666667       0.5651240739
S                    0.6666666667       0.1666666667       0.4348759261
Mo                   0.7777777778       0.3888888889       0.5000000000
S                    0.6666666667       0.3333333333       0.5651240739
S                    0.6666666667       0.3333333333       0.4348759261
Mo                   0.9444444444       0.5555555556       0.5000000000
S                    0.8333333333       0.5000000000       0.5651240739
S                    0.8333333333       0.5000000000       0.4348759261
Mo                   0.9444444444       0.7222222222       0.5000000000
S                    0.8333333333       0.6666666667       0.5651240739
S                    0.8333333333       0.6666666667       0.4348759261
Mo                   0.9444444444       0.8888888889       0.5000000000
S                    0.8333333333       0.8333333333       0.5651240739
S                    0.8333333333       0.8333333333       0.4348759261
Mo                   0.9444444444       0.0555555556       0.5000000000
S                    0.8333333333       0.0000000000       0.5651240739
S                    0.8333333333       0.0000000000       0.4348759261
Mo                   0.9444444444       0.2222222222       0.5000000000
S                    0.8333333333       0.1666666667       0.5651240739
S                    0.8333333333       0.1666666667       0.4348759261
Mo                   0.9444444444       0.3888888889       0.5000000000
S                    0.8333333333       0.3333333333       0.5651240739
S                    0.8333333333       0.3333333333       0.4348759261
Mo                   0.1111111111       0.5555555556       0.5000000000
S                    0.0000000000       0.5000000000       0.5651240739
S                    0.0000000000       0.5000000000       0.4348759261
Mo                   0.1111111111       0.7222222222       0.5000000000
S                    0.0000000000       0.6666666667       0.5651240739
S                    0.0000000000       0.6666666667       0.4348759261
Mo                   0.1111111111       0.8888888889       0.5000000000
S                    0.0000000000       0.8333333333       0.5651240739
S                    0.0000000000       0.8333333333       0.4348759261
Mo                   0.1111111111       0.0555555556       0.5000000000
S                    0.0000000000       0.0000000000       0.5651240739
S                    0.0000000000       0.0000000000       0.4348759261
Mo                   0.1111111111       0.2222222222       0.5000000000
S                    0.0000000000       0.1666666667       0.5651240739
S                    0.0000000000       0.1666666667       0.4348759261
Mo                   0.1111111111       0.3888888889       0.5000000000
S                    0.0000000000       0.3333333333       0.5651240739
S                    0.0000000000       0.3333333333       0.4348759261
Mo                   0.2777777778       0.5555555556       0.5000000000
S                    0.1666666667       0.5000000000       0.5651240739
S                    0.1666666667       0.5000000000       0.4348759261
Mo                   0.2777777778       0.7222222222       0.5000000000
S                    0.1666666667       0.6666666667       0.5651240739
S                    0.1666666667       0.6666666667       0.4348759261
Mo                   0.2777777778       0.8888888889       0.5000000000
S                    0.1666666667       0.8333333333       0.5651240739
S                    0.1666666667       0.8333333333       0.4348759261
Mo                   0.2777777778       0.0555555556       0.5000000000
S                    0.1666666667       0.0000000000       0.5651240739
S                    0.1666666667       0.0000000000       0.4348759261
Mo                   0.2777777778       0.2222222222       0.5000000000
S                    0.1666666667       0.1666666667       0.5651240739
S                    0.1666666667       0.1666666667       0.4348759261
Mo                   0.2777777778       0.3888888889       0.5000000000
S                    0.1666666667       0.3333333333       0.5651240739
S                    0.1666666667       0.3333333333       0.4348759261
Mo                   0.4444444444       0.5555555556       0.5000000000
S                    0.3333333333       0.5000000000       0.5651240739
S                    0.3333333333       0.5000000000       0.4348759261
Mo                   0.4444444444       0.7222222222       0.5000000000
S                    0.3333333333       0.6666666667       0.5651240739
S                    0.3333333333       0.6666666667       0.4348759261
Mo                   0.4444444444       0.8888888889       0.5000000000
S                    0.3333333333       0.8333333333       0.5651240739
S                    0.3333333333       0.8333333333       0.4348759261
Mo                   0.4444444444       0.0555555556       0.5000000000
S                    0.3333333333       0.0000000000       0.5651240739
S                    0.3333333333       0.0000000000       0.4348759261
Mo                   0.4444444444       0.2222222222       0.5000000000
S                    0.3333333333       0.1666666667       0.5651240739
S                    0.3333333333       0.1666666667       0.4348759261
Mo                   0.4444444444       0.3888888889       0.5000000000
S                    0.3333333333       0.3333333333       0.5651240739
S                    0.3333333333       0.3333333333       0.4348759261


K_POINTS gamma
