&inputpp
   prefix='mx2-p',
   outdir = 'dout/'
   filplot = 'V_p.dat'
   plot_num= 1
/
&plot
/
