&control
   calculation = 'bands'
   prefix='mx2',
   pseudo_dir = '.',
   outdir='dout/'
/
&system
   ibrav=  0,
   A=3.186
   nat=  3, ntyp= 2,
   ecutwfc= 40.0,
   occupations='smearing'
   smearing='gaussian'
   degauss=0.01
   assume_isolated='2D'
/
&electrons
   diagonalization='david'
   mixing_mode = 'plain'
   mixing_beta = 0.1
   conv_thr =  1.0d-6
/

ATOMIC_SPECIES
Mo  95.96 Mo.upf
S   32.06  S.upf

CELL_PARAMETERS alat
 1.0000000000 0.0000000000 0.0000000000
-0.5000000000 0.8660254038 0.0000000000
 0.0000000000 0.0000000000 8.0000000000

ATOMIC_POSITIONS crystal
Mo             0.6666666666        0.3333333333        0.5000000000
S              0.0000000000        0.0000000000        0.5613878842
S              0.0000000000        0.0000000000        0.4386121158

K_POINTS crystal
560
   0.270833333333   0.354166666667     0.000000000000    0.0  
   0.270833333333   0.361111111111     0.000000000000    0.0  
   0.270833333333   0.368055555556     0.000000000000    0.0  
   0.270833333333   0.375000000000     0.000000000000    0.0  
   0.270833333333   0.381944444444     0.000000000000    0.0  
   0.270833333333   0.388888888889     0.000000000000    0.0  
   0.270833333333   0.340277777778     0.000000000000    0.0  
   0.270833333333   0.347222222222     0.000000000000    0.0  
   0.277777777778   0.368055555556     0.000000000000    0.0  
   0.277777777778   0.375000000000     0.000000000000    0.0  
   0.277777777778   0.381944444444     0.000000000000    0.0  
   0.277777777778   0.388888888889     0.000000000000    0.0  
   0.277777777778   0.395833333333     0.000000000000    0.0  
   0.277777777778   0.326388888889     0.000000000000    0.0  
   0.277777777778   0.333333333333     0.000000000000    0.0  
   0.277777777778   0.340277777778     0.000000000000    0.0  
   0.277777777778   0.347222222222     0.000000000000    0.0  
   0.284722222222   0.381944444444     0.000000000000    0.0  
   0.284722222222   0.388888888889     0.000000000000    0.0  
   0.284722222222   0.395833333333     0.000000000000    0.0  
   0.284722222222   0.319444444444     0.000000000000    0.0  
   0.284722222222   0.326388888889     0.000000000000    0.0  
   0.284722222222   0.333333333333     0.000000000000    0.0  
   0.291666666667   0.388888888889     0.000000000000    0.0  
   0.291666666667   0.395833333333     0.000000000000    0.0  
   0.291666666667   0.312500000000     0.000000000000    0.0  
   0.291666666667   0.319444444444     0.000000000000    0.0  
   0.298611111111   0.388888888889     0.000000000000    0.0  
   0.298611111111   0.395833333333     0.000000000000    0.0  
   0.298611111111   0.305555555556     0.000000000000    0.0  
   0.298611111111   0.312500000000     0.000000000000    0.0  
   0.305555555556   0.388888888889     0.000000000000    0.0  
   0.305555555556   0.395833333333     0.000000000000    0.0  
   0.305555555556   0.298611111111     0.000000000000    0.0  
   0.305555555556   0.305555555556     0.000000000000    0.0  
   0.312500000000   0.388888888889     0.000000000000    0.0  
   0.312500000000   0.395833333333     0.000000000000    0.0  
   0.312500000000   0.291666666667     0.000000000000    0.0  
   0.312500000000   0.298611111111     0.000000000000    0.0  
   0.319444444444   0.388888888889     0.000000000000    0.0  
   0.319444444444   0.395833333333     0.000000000000    0.0  
   0.319444444444   0.284722222222     0.000000000000    0.0  
   0.319444444444   0.291666666667     0.000000000000    0.0  
   0.326388888889   0.388888888889     0.000000000000    0.0  
   0.326388888889   0.395833333333     0.000000000000    0.0  
   0.326388888889   0.277777777778     0.000000000000    0.0  
   0.326388888889   0.284722222222     0.000000000000    0.0  
   0.333333333333   0.381944444444     0.000000000000    0.0  
   0.333333333333   0.388888888889     0.000000000000    0.0  
   0.333333333333   0.277777777778     0.000000000000    0.0  
   0.333333333333   0.284722222222     0.000000000000    0.0  
   0.340277777778   0.381944444444     0.000000000000    0.0  
   0.340277777778   0.388888888889     0.000000000000    0.0  
   0.340277777778   0.270833333333     0.000000000000    0.0  
   0.340277777778   0.277777777778     0.000000000000    0.0  
   0.347222222222   0.375000000000     0.000000000000    0.0  
   0.347222222222   0.381944444444     0.000000000000    0.0  
   0.347222222222   0.270833333333     0.000000000000    0.0  
   0.347222222222   0.277777777778     0.000000000000    0.0  
   0.354166666667   0.368055555556     0.000000000000    0.0  
   0.354166666667   0.375000000000     0.000000000000    0.0  
   0.354166666667   0.270833333333     0.000000000000    0.0  
   0.354166666667   0.277777777778     0.000000000000    0.0  
   0.361111111111   0.368055555556     0.000000000000    0.0  
   0.361111111111   0.375000000000     0.000000000000    0.0  
   0.361111111111   0.263888888889     0.000000000000    0.0  
   0.361111111111   0.270833333333     0.000000000000    0.0  
   0.368055555556   0.354166666667     0.000000000000    0.0  
   0.368055555556   0.361111111111     0.000000000000    0.0  
   0.368055555556   0.368055555556     0.000000000000    0.0  
   0.368055555556   0.263888888889     0.000000000000    0.0  
   0.368055555556   0.270833333333     0.000000000000    0.0  
   0.368055555556   0.277777777778     0.000000000000    0.0  
   0.375000000000   0.354166666667     0.000000000000    0.0  
   0.375000000000   0.361111111111     0.000000000000    0.0  
   0.375000000000   0.263888888889     0.000000000000    0.0  
   0.375000000000   0.270833333333     0.000000000000    0.0  
   0.375000000000   0.277777777778     0.000000000000    0.0  
   0.375000000000   0.347222222222     0.000000000000    0.0  
   0.381944444444   0.270833333333     0.000000000000    0.0  
   0.381944444444   0.277777777778     0.000000000000    0.0  
   0.381944444444   0.284722222222     0.000000000000    0.0  
   0.381944444444   0.333333333333     0.000000000000    0.0  
   0.381944444444   0.340277777778     0.000000000000    0.0  
   0.381944444444   0.347222222222     0.000000000000    0.0  
   0.388888888889   0.270833333333     0.000000000000    0.0  
   0.388888888889   0.277777777778     0.000000000000    0.0  
   0.388888888889   0.284722222222     0.000000000000    0.0  
   0.388888888889   0.291666666667     0.000000000000    0.0  
   0.388888888889   0.298611111111     0.000000000000    0.0  
   0.388888888889   0.305555555556     0.000000000000    0.0  
   0.388888888889   0.312500000000     0.000000000000    0.0  
   0.388888888889   0.319444444444     0.000000000000    0.0  
   0.388888888889   0.326388888889     0.000000000000    0.0  
   0.388888888889   0.333333333333     0.000000000000    0.0  
   0.388888888889   0.340277777778     0.000000000000    0.0  
   0.395833333333   0.277777777778     0.000000000000    0.0  
   0.395833333333   0.284722222222     0.000000000000    0.0  
   0.395833333333   0.291666666667     0.000000000000    0.0  
   0.395833333333   0.298611111111     0.000000000000    0.0  
   0.395833333333   0.305555555556     0.000000000000    0.0  
   0.395833333333   0.312500000000     0.000000000000    0.0  
   0.395833333333   0.319444444444     0.000000000000    0.0  
   0.395833333333   0.326388888889     0.000000000000    0.0  
   0.604166666667   0.673611111111     0.000000000000    0.0  
   0.604166666667   0.680555555556     0.000000000000    0.0  
   0.604166666667   0.687500000000     0.000000000000    0.0  
   0.604166666667   0.694444444444     0.000000000000    0.0  
   0.604166666667   0.701388888889     0.000000000000    0.0  
   0.604166666667   0.708333333333     0.000000000000    0.0  
   0.604166666667   0.715277777778     0.000000000000    0.0  
   0.604166666667   0.722222222222     0.000000000000    0.0  
   0.611111111111   0.659722222222     0.000000000000    0.0  
   0.611111111111   0.666666666667     0.000000000000    0.0  
   0.611111111111   0.673611111111     0.000000000000    0.0  
   0.611111111111   0.680555555556     0.000000000000    0.0  
   0.611111111111   0.687500000000     0.000000000000    0.0  
   0.611111111111   0.694444444444     0.000000000000    0.0  
   0.611111111111   0.701388888889     0.000000000000    0.0  
   0.611111111111   0.708333333333     0.000000000000    0.0  
   0.611111111111   0.715277777778     0.000000000000    0.0  
   0.611111111111   0.722222222222     0.000000000000    0.0  
   0.611111111111   0.729166666667     0.000000000000    0.0  
   0.618055555556   0.652777777778     0.000000000000    0.0  
   0.618055555556   0.659722222222     0.000000000000    0.0  
   0.618055555556   0.666666666667     0.000000000000    0.0  
   0.618055555556   0.715277777778     0.000000000000    0.0  
   0.618055555556   0.722222222222     0.000000000000    0.0  
   0.618055555556   0.729166666667     0.000000000000    0.0  
   0.625000000000   0.638888888889     0.000000000000    0.0  
   0.625000000000   0.645833333333     0.000000000000    0.0  
   0.625000000000   0.652777777778     0.000000000000    0.0  
   0.625000000000   0.722222222222     0.000000000000    0.0  
   0.625000000000   0.729166666667     0.000000000000    0.0  
   0.625000000000   0.736111111111     0.000000000000    0.0  
   0.631944444444   0.631944444444     0.000000000000    0.0  
   0.631944444444   0.638888888889     0.000000000000    0.0  
   0.631944444444   0.645833333333     0.000000000000    0.0  
   0.631944444444   0.722222222222     0.000000000000    0.0  
   0.631944444444   0.729166666667     0.000000000000    0.0  
   0.631944444444   0.736111111111     0.000000000000    0.0  
   0.638888888889   0.625000000000     0.000000000000    0.0  
   0.638888888889   0.631944444444     0.000000000000    0.0  
   0.638888888889   0.729166666667     0.000000000000    0.0  
   0.638888888889   0.736111111111     0.000000000000    0.0  
   0.645833333333   0.625000000000     0.000000000000    0.0  
   0.645833333333   0.631944444444     0.000000000000    0.0  
   0.645833333333   0.722222222222     0.000000000000    0.0  
   0.645833333333   0.729166666667     0.000000000000    0.0  
   0.652777777778   0.618055555556     0.000000000000    0.0  
   0.652777777778   0.625000000000     0.000000000000    0.0  
   0.652777777778   0.722222222222     0.000000000000    0.0  
   0.652777777778   0.729166666667     0.000000000000    0.0  
   0.659722222222   0.611111111111     0.000000000000    0.0  
   0.659722222222   0.618055555556     0.000000000000    0.0  
   0.659722222222   0.722222222222     0.000000000000    0.0  
   0.659722222222   0.729166666667     0.000000000000    0.0  
   0.666666666667   0.611111111111     0.000000000000    0.0  
   0.666666666667   0.618055555556     0.000000000000    0.0  
   0.666666666667   0.715277777778     0.000000000000    0.0  
   0.666666666667   0.722222222222     0.000000000000    0.0  
   0.673611111111   0.604166666667     0.000000000000    0.0  
   0.673611111111   0.611111111111     0.000000000000    0.0  
   0.673611111111   0.715277777778     0.000000000000    0.0  
   0.673611111111   0.722222222222     0.000000000000    0.0  
   0.680555555556   0.604166666667     0.000000000000    0.0  
   0.680555555556   0.611111111111     0.000000000000    0.0  
   0.680555555556   0.708333333333     0.000000000000    0.0  
   0.680555555556   0.715277777778     0.000000000000    0.0  
   0.687500000000   0.604166666667     0.000000000000    0.0  
   0.687500000000   0.611111111111     0.000000000000    0.0  
   0.687500000000   0.701388888889     0.000000000000    0.0  
   0.687500000000   0.708333333333     0.000000000000    0.0  
   0.694444444444   0.604166666667     0.000000000000    0.0  
   0.694444444444   0.611111111111     0.000000000000    0.0  
   0.694444444444   0.694444444444     0.000000000000    0.0  
   0.694444444444   0.701388888889     0.000000000000    0.0  
   0.701388888889   0.604166666667     0.000000000000    0.0  
   0.701388888889   0.611111111111     0.000000000000    0.0  
   0.701388888889   0.687500000000     0.000000000000    0.0  
   0.701388888889   0.694444444444     0.000000000000    0.0  
   0.708333333333   0.604166666667     0.000000000000    0.0  
   0.708333333333   0.611111111111     0.000000000000    0.0  
   0.708333333333   0.680555555556     0.000000000000    0.0  
   0.708333333333   0.687500000000     0.000000000000    0.0  
   0.715277777778   0.604166666667     0.000000000000    0.0  
   0.715277777778   0.611111111111     0.000000000000    0.0  
   0.715277777778   0.618055555556     0.000000000000    0.0  
   0.715277777778   0.666666666667     0.000000000000    0.0  
   0.715277777778   0.673611111111     0.000000000000    0.0  
   0.715277777778   0.680555555556     0.000000000000    0.0  
   0.722222222222   0.604166666667     0.000000000000    0.0  
   0.722222222222   0.611111111111     0.000000000000    0.0  
   0.722222222222   0.618055555556     0.000000000000    0.0  
   0.722222222222   0.625000000000     0.000000000000    0.0  
   0.722222222222   0.631944444444     0.000000000000    0.0  
   0.722222222222   0.645833333333     0.000000000000    0.0  
   0.722222222222   0.652777777778     0.000000000000    0.0  
   0.722222222222   0.659722222222     0.000000000000    0.0  
   0.722222222222   0.666666666667     0.000000000000    0.0  
   0.722222222222   0.673611111111     0.000000000000    0.0  
   0.729166666667   0.611111111111     0.000000000000    0.0  
   0.729166666667   0.618055555556     0.000000000000    0.0  
   0.729166666667   0.625000000000     0.000000000000    0.0  
   0.729166666667   0.631944444444     0.000000000000    0.0  
   0.729166666667   0.638888888889     0.000000000000    0.0  
   0.729166666667   0.645833333333     0.000000000000    0.0  
   0.729166666667   0.652777777778     0.000000000000    0.0  
   0.729166666667   0.659722222222     0.000000000000    0.0  
   0.736111111111   0.625000000000     0.000000000000    0.0  
   0.736111111111   0.631944444444     0.000000000000    0.0  
   0.736111111111   0.638888888889     0.000000000000    0.0  
   0.263888888889   0.361111111111     0.000000000000    0.0  
   0.263888888889   0.368055555556     0.000000000000    0.0  
   0.263888888889   0.375000000000     0.000000000000    0.0  
   0.277777777778   0.361111111111     0.000000000000    0.0  
   0.277777777778   0.354166666667     0.000000000000    0.0  
   0.291666666667   0.381944444444     0.000000000000    0.0  
   0.291666666667   0.326388888889     0.000000000000    0.0  
   0.326388888889   0.381944444444     0.000000000000    0.0  
   0.326388888889   0.291666666667     0.000000000000    0.0  
   0.361111111111   0.361111111111     0.000000000000    0.0  
   0.361111111111   0.277777777778     0.000000000000    0.0  
   0.381944444444   0.291666666667     0.000000000000    0.0  
   0.381944444444   0.326388888889     0.000000000000    0.0  
   0.618055555556   0.673611111111     0.000000000000    0.0  
   0.618055555556   0.708333333333     0.000000000000    0.0  
   0.638888888889   0.638888888889     0.000000000000    0.0  
   0.638888888889   0.722222222222     0.000000000000    0.0  
   0.673611111111   0.618055555556     0.000000000000    0.0  
   0.673611111111   0.708333333333     0.000000000000    0.0  
   0.708333333333   0.618055555556     0.000000000000    0.0  
   0.708333333333   0.673611111111     0.000000000000    0.0  
   0.722222222222   0.638888888889     0.000000000000    0.0  
   0.354166666667   0.381944444444     0.000000000000    0.0  
   0.354166666667   0.263888888889     0.000000000000    0.0  
   0.381944444444   0.354166666667     0.000000000000    0.0  
   0.381944444444   0.263888888889     0.000000000000    0.0  
   0.618055555556   0.645833333333     0.000000000000    0.0  
   0.618055555556   0.736111111111     0.000000000000    0.0  
   0.645833333333   0.618055555556     0.000000000000    0.0  
   0.645833333333   0.736111111111     0.000000000000    0.0  
   0.736111111111   0.618055555556     0.000000000000    0.0  
   0.736111111111   0.645833333333     0.000000000000    0.0  
   0.263888888889   0.354166666667     0.000000000000    0.0  
   0.263888888889   0.381944444444     0.000000000000    0.0  
   0.284722222222   0.375000000000     0.000000000000    0.0  
   0.340277777778   0.375000000000     0.000000000000    0.0  
   0.340277777778   0.284722222222     0.000000000000    0.0  
   0.375000000000   0.340277777778     0.000000000000    0.0  
   0.375000000000   0.284722222222     0.000000000000    0.0  
   0.625000000000   0.659722222222     0.000000000000    0.0  
   0.625000000000   0.715277777778     0.000000000000    0.0  
   0.659722222222   0.625000000000     0.000000000000    0.0  
   0.659722222222   0.715277777778     0.000000000000    0.0  
   0.715277777778   0.625000000000     0.000000000000    0.0  
   0.715277777778   0.659722222222     0.000000000000    0.0  
   0.284722222222   0.368055555556     0.000000000000    0.0  
   0.284722222222   0.340277777778     0.000000000000    0.0  
   0.298611111111   0.381944444444     0.000000000000    0.0  
   0.298611111111   0.319444444444     0.000000000000    0.0  
   0.305555555556   0.381944444444     0.000000000000    0.0  
   0.305555555556   0.312500000000     0.000000000000    0.0  
   0.312500000000   0.381944444444     0.000000000000    0.0  
   0.312500000000   0.305555555556     0.000000000000    0.0  
   0.319444444444   0.381944444444     0.000000000000    0.0  
   0.319444444444   0.298611111111     0.000000000000    0.0  
   0.347222222222   0.368055555556     0.000000000000    0.0  
   0.347222222222   0.284722222222     0.000000000000    0.0  
   0.368055555556   0.347222222222     0.000000000000    0.0  
   0.368055555556   0.284722222222     0.000000000000    0.0  
   0.381944444444   0.298611111111     0.000000000000    0.0  
   0.381944444444   0.305555555556     0.000000000000    0.0  
   0.381944444444   0.312500000000     0.000000000000    0.0  
   0.381944444444   0.319444444444     0.000000000000    0.0  
   0.618055555556   0.680555555556     0.000000000000    0.0  
   0.618055555556   0.687500000000     0.000000000000    0.0  
   0.618055555556   0.694444444444     0.000000000000    0.0  
   0.618055555556   0.701388888889     0.000000000000    0.0  
   0.631944444444   0.652777777778     0.000000000000    0.0  
   0.631944444444   0.715277777778     0.000000000000    0.0  
   0.652777777778   0.631944444444     0.000000000000    0.0  
   0.652777777778   0.715277777778     0.000000000000    0.0  
   0.680555555556   0.618055555556     0.000000000000    0.0  
   0.680555555556   0.701388888889     0.000000000000    0.0  
   0.687500000000   0.618055555556     0.000000000000    0.0  
   0.687500000000   0.694444444444     0.000000000000    0.0  
   0.694444444444   0.618055555556     0.000000000000    0.0  
   0.694444444444   0.687500000000     0.000000000000    0.0  
   0.701388888889   0.618055555556     0.000000000000    0.0  
   0.701388888889   0.680555555556     0.000000000000    0.0  
   0.715277777778   0.631944444444     0.000000000000    0.0  
   0.715277777778   0.652777777778     0.000000000000    0.0  
   0.284722222222   0.361111111111     0.000000000000    0.0  
   0.284722222222   0.347222222222     0.000000000000    0.0  
   0.291666666667   0.375000000000     0.000000000000    0.0  
   0.291666666667   0.333333333333     0.000000000000    0.0  
   0.333333333333   0.375000000000     0.000000000000    0.0  
   0.333333333333   0.291666666667     0.000000000000    0.0  
   0.354166666667   0.361111111111     0.000000000000    0.0  
   0.354166666667   0.284722222222     0.000000000000    0.0  
   0.361111111111   0.354166666667     0.000000000000    0.0  
   0.361111111111   0.284722222222     0.000000000000    0.0  
   0.375000000000   0.291666666667     0.000000000000    0.0  
   0.375000000000   0.333333333333     0.000000000000    0.0  
   0.625000000000   0.666666666667     0.000000000000    0.0  
   0.625000000000   0.708333333333     0.000000000000    0.0  
   0.638888888889   0.645833333333     0.000000000000    0.0  
   0.638888888889   0.715277777778     0.000000000000    0.0  
   0.645833333333   0.638888888889     0.000000000000    0.0  
   0.645833333333   0.715277777778     0.000000000000    0.0  
   0.666666666667   0.625000000000     0.000000000000    0.0  
   0.666666666667   0.708333333333     0.000000000000    0.0  
   0.708333333333   0.625000000000     0.000000000000    0.0  
   0.708333333333   0.666666666667     0.000000000000    0.0  
   0.715277777778   0.638888888889     0.000000000000    0.0  
   0.715277777778   0.645833333333     0.000000000000    0.0  
   0.284722222222   0.354166666667     0.000000000000    0.0  
   0.291666666667   0.368055555556     0.000000000000    0.0  
   0.298611111111   0.375000000000     0.000000000000    0.0  
   0.298611111111   0.326388888889     0.000000000000    0.0  
   0.326388888889   0.375000000000     0.000000000000    0.0  
   0.326388888889   0.298611111111     0.000000000000    0.0  
   0.340277777778   0.368055555556     0.000000000000    0.0  
   0.340277777778   0.291666666667     0.000000000000    0.0  
   0.368055555556   0.340277777778     0.000000000000    0.0  
   0.368055555556   0.291666666667     0.000000000000    0.0  
   0.375000000000   0.298611111111     0.000000000000    0.0  
   0.375000000000   0.326388888889     0.000000000000    0.0  
   0.625000000000   0.673611111111     0.000000000000    0.0  
   0.625000000000   0.701388888889     0.000000000000    0.0  
   0.631944444444   0.659722222222     0.000000000000    0.0  
   0.631944444444   0.708333333333     0.000000000000    0.0  
   0.659722222222   0.631944444444     0.000000000000    0.0  
   0.659722222222   0.708333333333     0.000000000000    0.0  
   0.673611111111   0.625000000000     0.000000000000    0.0  
   0.673611111111   0.701388888889     0.000000000000    0.0  
   0.701388888889   0.625000000000     0.000000000000    0.0  
   0.701388888889   0.673611111111     0.000000000000    0.0  
   0.708333333333   0.631944444444     0.000000000000    0.0  
   0.708333333333   0.659722222222     0.000000000000    0.0  
   0.291666666667   0.361111111111     0.000000000000    0.0  
   0.291666666667   0.340277777778     0.000000000000    0.0  
   0.305555555556   0.375000000000     0.000000000000    0.0  
   0.305555555556   0.319444444444     0.000000000000    0.0  
   0.312500000000   0.375000000000     0.000000000000    0.0  
   0.312500000000   0.312500000000     0.000000000000    0.0  
   0.319444444444   0.375000000000     0.000000000000    0.0  
   0.319444444444   0.305555555556     0.000000000000    0.0  
   0.347222222222   0.361111111111     0.000000000000    0.0  
   0.347222222222   0.291666666667     0.000000000000    0.0  
   0.361111111111   0.347222222222     0.000000000000    0.0  
   0.361111111111   0.291666666667     0.000000000000    0.0  
   0.375000000000   0.305555555556     0.000000000000    0.0  
   0.375000000000   0.312500000000     0.000000000000    0.0  
   0.375000000000   0.319444444444     0.000000000000    0.0  
   0.625000000000   0.680555555556     0.000000000000    0.0  
   0.625000000000   0.687500000000     0.000000000000    0.0  
   0.625000000000   0.694444444444     0.000000000000    0.0  
   0.638888888889   0.652777777778     0.000000000000    0.0  
   0.638888888889   0.708333333333     0.000000000000    0.0  
   0.652777777778   0.638888888889     0.000000000000    0.0  
   0.652777777778   0.708333333333     0.000000000000    0.0  
   0.680555555556   0.625000000000     0.000000000000    0.0  
   0.680555555556   0.694444444444     0.000000000000    0.0  
   0.687500000000   0.625000000000     0.000000000000    0.0  
   0.687500000000   0.687500000000     0.000000000000    0.0  
   0.694444444444   0.625000000000     0.000000000000    0.0  
   0.694444444444   0.680555555556     0.000000000000    0.0  
   0.708333333333   0.638888888889     0.000000000000    0.0  
   0.708333333333   0.652777777778     0.000000000000    0.0  
   0.291666666667   0.354166666667     0.000000000000    0.0  
   0.291666666667   0.347222222222     0.000000000000    0.0  
   0.298611111111   0.368055555556     0.000000000000    0.0  
   0.298611111111   0.333333333333     0.000000000000    0.0  
   0.333333333333   0.368055555556     0.000000000000    0.0  
   0.333333333333   0.298611111111     0.000000000000    0.0  
   0.354166666667   0.354166666667     0.000000000000    0.0  
   0.354166666667   0.291666666667     0.000000000000    0.0  
   0.368055555556   0.298611111111     0.000000000000    0.0  
   0.368055555556   0.333333333333     0.000000000000    0.0  
   0.631944444444   0.666666666667     0.000000000000    0.0  
   0.631944444444   0.701388888889     0.000000000000    0.0  
   0.645833333333   0.645833333333     0.000000000000    0.0  
   0.645833333333   0.708333333333     0.000000000000    0.0  
   0.666666666667   0.631944444444     0.000000000000    0.0  
   0.666666666667   0.701388888889     0.000000000000    0.0  
   0.701388888889   0.631944444444     0.000000000000    0.0  
   0.701388888889   0.666666666667     0.000000000000    0.0  
   0.708333333333   0.645833333333     0.000000000000    0.0  
   0.298611111111   0.361111111111     0.000000000000    0.0  
   0.305555555556   0.368055555556     0.000000000000    0.0  
   0.305555555556   0.326388888889     0.000000000000    0.0  
   0.326388888889   0.368055555556     0.000000000000    0.0  
   0.326388888889   0.305555555556     0.000000000000    0.0  
   0.340277777778   0.361111111111     0.000000000000    0.0  
   0.340277777778   0.298611111111     0.000000000000    0.0  
   0.361111111111   0.340277777778     0.000000000000    0.0  
   0.361111111111   0.298611111111     0.000000000000    0.0  
   0.368055555556   0.305555555556     0.000000000000    0.0  
   0.368055555556   0.326388888889     0.000000000000    0.0  
   0.631944444444   0.673611111111     0.000000000000    0.0  
   0.631944444444   0.694444444444     0.000000000000    0.0  
   0.638888888889   0.659722222222     0.000000000000    0.0  
   0.638888888889   0.701388888889     0.000000000000    0.0  
   0.659722222222   0.638888888889     0.000000000000    0.0  
   0.659722222222   0.701388888889     0.000000000000    0.0  
   0.673611111111   0.631944444444     0.000000000000    0.0  
   0.673611111111   0.694444444444     0.000000000000    0.0  
   0.694444444444   0.631944444444     0.000000000000    0.0  
   0.694444444444   0.673611111111     0.000000000000    0.0  
   0.701388888889   0.638888888889     0.000000000000    0.0  
   0.701388888889   0.659722222222     0.000000000000    0.0  
   0.298611111111   0.354166666667     0.000000000000    0.0  
   0.298611111111   0.340277777778     0.000000000000    0.0  
   0.312500000000   0.368055555556     0.000000000000    0.0  
   0.312500000000   0.319444444444     0.000000000000    0.0  
   0.319444444444   0.368055555556     0.000000000000    0.0  
   0.319444444444   0.312500000000     0.000000000000    0.0  
   0.347222222222   0.354166666667     0.000000000000    0.0  
   0.347222222222   0.298611111111     0.000000000000    0.0  
   0.354166666667   0.347222222222     0.000000000000    0.0  
   0.354166666667   0.298611111111     0.000000000000    0.0  
   0.368055555556   0.312500000000     0.000000000000    0.0  
   0.368055555556   0.319444444444     0.000000000000    0.0  
   0.631944444444   0.680555555556     0.000000000000    0.0  
   0.631944444444   0.687500000000     0.000000000000    0.0  
   0.645833333333   0.652777777778     0.000000000000    0.0  
   0.645833333333   0.701388888889     0.000000000000    0.0  
   0.652777777778   0.645833333333     0.000000000000    0.0  
   0.652777777778   0.701388888889     0.000000000000    0.0  
   0.680555555556   0.631944444444     0.000000000000    0.0  
   0.680555555556   0.687500000000     0.000000000000    0.0  
   0.687500000000   0.631944444444     0.000000000000    0.0  
   0.687500000000   0.680555555556     0.000000000000    0.0  
   0.701388888889   0.645833333333     0.000000000000    0.0  
   0.701388888889   0.652777777778     0.000000000000    0.0  
   0.298611111111   0.347222222222     0.000000000000    0.0  
   0.305555555556   0.361111111111     0.000000000000    0.0  
   0.333333333333   0.361111111111     0.000000000000    0.0  
   0.333333333333   0.305555555556     0.000000000000    0.0  
   0.361111111111   0.333333333333     0.000000000000    0.0  
   0.361111111111   0.305555555556     0.000000000000    0.0  
   0.638888888889   0.666666666667     0.000000000000    0.0  
   0.638888888889   0.694444444444     0.000000000000    0.0  
   0.666666666667   0.638888888889     0.000000000000    0.0  
   0.666666666667   0.694444444444     0.000000000000    0.0  
   0.694444444444   0.638888888889     0.000000000000    0.0  
   0.694444444444   0.666666666667     0.000000000000    0.0  
   0.305555555556   0.354166666667     0.000000000000    0.0  
   0.305555555556   0.333333333333     0.000000000000    0.0  
   0.312500000000   0.361111111111     0.000000000000    0.0  
   0.312500000000   0.326388888889     0.000000000000    0.0  
   0.326388888889   0.361111111111     0.000000000000    0.0  
   0.326388888889   0.312500000000     0.000000000000    0.0  
   0.340277777778   0.354166666667     0.000000000000    0.0  
   0.340277777778   0.305555555556     0.000000000000    0.0  
   0.354166666667   0.340277777778     0.000000000000    0.0  
   0.354166666667   0.305555555556     0.000000000000    0.0  
   0.361111111111   0.312500000000     0.000000000000    0.0  
   0.361111111111   0.326388888889     0.000000000000    0.0  
   0.638888888889   0.673611111111     0.000000000000    0.0  
   0.638888888889   0.687500000000     0.000000000000    0.0  