
&control
   calculation = 'scf'
   verbosity='high'
   restart_mode='from_scratch',
   prefix='mos2',
   pseudo_dir = '  /home/can/run/2-lu-defect-FFT-scattering/pseudo',
 
   outdir='dout/'
/
&system
    ibrav=  0, 
    A=3.09
    nat=  75, ntyp= 5,
    ecutwfc =60.0,
    !nbnd=14
    occupations='smearing'
    smearing='gaussian'
    degauss=0.001
/
&electrons
    !electron_maxstep=2
    diagonalization='david'
    mixing_mode = 'plain'
    mixing_beta = 0.7
    conv_thr =  1.0d-6
/

&ions
/


&cell
cell_dofree='2Dxy'
/


&calcmcontrol

kpoint_initial=4
kpoint_final=10
bnd_initial=10
bnd_final=10
vperturb_filename='vloc.dat'
eps_filename='eps.dat'
/


ATOMIC_SPECIES
Mo    95.96   Mo.pw-mt_fhi.UPF
S     32.06    S.pw-mt_fhi.UPF
W    183.84    W.pw-mt_fhi.UPF
Se    78.96   Se.pw-mt_fhi.UPF
O     16.00    O.pw-mt_fhi.UPF

CELL_PARAMETERS alat
      5.0000000000       0.0000000000       0.0000000000
     -2.5000000000       4.3301270189       0.0000000000
      0.0000000000       0.0000000000       8.0000000000
ATOMIC_POSITIONS crystal
Mo          -0.0666666667      -0.1333333333       0.0000000000
S            0.0000000000       0.0000000000       0.0626550000
S            0.0000000000       0.0000000000      -0.0626550000
Mo          -0.0666666667       0.0666666667       0.0000000000
S            0.0000000000       0.2000000000       0.0626550000
S            0.0000000000       0.2000000000      -0.0626550000
Mo          -0.0666666667       0.2666666667       0.0000000000
S            0.0000000000       0.4000000000       0.0626550000
S            0.0000000000       0.4000000000      -0.0626550000
Mo          -0.0666666667       0.4666666667       0.0000000000
S            0.0000000000       0.6000000000       0.0626550000
S            0.0000000000       0.6000000000      -0.0626550000
Mo          -0.0666666667       0.6666666667       0.0000000000
S            0.0000000000       0.8000000000       0.0626550000
S            0.0000000000       0.8000000000      -0.0626550000
Mo           0.1333333333      -0.1333333333       0.0000000000
S            0.2000000000       0.0000000000       0.0626550000
S            0.2000000000       0.0000000000      -0.0626550000
Mo           0.1333333333       0.0666666667       0.0000000000
S            0.2000000000       0.2000000000       0.0626550000
S            0.2000000000       0.2000000000      -0.0626550000
Mo           0.1333333333       0.2666666667       0.0000000000
S            0.2000000000       0.4000000000       0.0626550000
S            0.2000000000       0.4000000000      -0.0626550000
Mo           0.1333333333       0.4666666667       0.0000000000
S            0.2000000000       0.6000000000       0.0626550000
S            0.2000000000       0.6000000000      -0.0626550000
Mo           0.1333333333       0.6666666667       0.0000000000
S            0.2000000000       0.8000000000       0.0626550000
S            0.2000000000       0.8000000000      -0.0626550000
Mo           0.3333333333      -0.1333333333       0.0000000000
S            0.4000000000       0.0000000000       0.0626550000
S            0.4000000000       0.0000000000      -0.0626550000
Mo           0.3333333333       0.0666666667       0.0000000000
S            0.4000000000       0.2000000000       0.0626550000
S            0.4000000000       0.2000000000      -0.0626550000
Mo           0.3333333333       0.2666666667       0.0000000000
S            0.4000000000       0.4000000000       0.0626550000
S            0.4000000000       0.4000000000      -0.0626550000
Mo           0.3333333333       0.4666666667       0.0000000000
S            0.4000000000       0.6000000000       0.0626550000
S            0.4000000000       0.6000000000      -0.0626550000
Mo           0.3333333333       0.6666666667       0.0000000000
S            0.4000000000       0.8000000000       0.0626550000
S            0.4000000000       0.8000000000      -0.0626550000
Mo           0.5333333333      -0.1333333333       0.0000000000
S            0.6000000000       0.0000000000       0.0626550000
S            0.6000000000       0.0000000000      -0.0626550000
Mo           0.5333333333       0.0666666667       0.0000000000
S            0.6000000000       0.2000000000       0.0626550000
S            0.6000000000       0.2000000000      -0.0626550000
Mo           0.5333333333       0.2666666667       0.0000000000
S            0.6000000000       0.4000000000       0.0626550000
S            0.6000000000       0.4000000000      -0.0626550000
Mo           0.5333333333       0.4666666667       0.0000000000
S            0.6000000000       0.6000000000       0.0626550000
S            0.6000000000       0.6000000000      -0.0626550000
Mo           0.5333333333       0.6666666667       0.0000000000
S            0.6000000000       0.8000000000       0.0626550000
S            0.6000000000       0.8000000000      -0.0626550000
Mo           0.7333333333      -0.1333333333       0.0000000000
S            0.8000000000       0.0000000000       0.0626550000
S            0.8000000000       0.0000000000      -0.0626550000
Mo           0.7333333333       0.0666666667       0.0000000000
S            0.8000000000       0.2000000000       0.0626550000
S            0.8000000000       0.2000000000      -0.0626550000
Mo           0.7333333333       0.2666666667       0.0000000000
S            0.8000000000       0.4000000000       0.0626550000
S            0.8000000000       0.4000000000      -0.0626550000
Mo           0.7333333333       0.4666666667       0.0000000000
S            0.8000000000       0.6000000000       0.0626550000
S            0.8000000000       0.6000000000      -0.0626550000
Mo           0.7333333333       0.6666666667       0.0000000000
S            0.8000000000       0.8000000000       0.0626550000
S            0.8000000000       0.8000000000      -0.0626550000

K_POINTS gamma
