&control
   calculation = 'bands'
   verbosity='high'
   restart_mode='from_scratch',
   prefix='mos2',
   pseudo_dir = '/home/x-rg47749/pseudo_dojo_nc_pbe_sr/nc-sr-05_pbe_stringent_upf/',
   outdir='./dout/'
/
&system
   ibrav=  0,
   A=1.0
   nat=  3, ntyp= 2,
   ecutwfc =100.0,
   nbnd=17
   assume_isolated = '2D'
/

&electrons
   diagonalization='david'
   mixing_mode = 'plain'
   mixing_beta = 0.5
   conv_thr =  1.0e-10
/


ATOMIC_SPECIES
Mo 95.96 Mo.upf
S 32.06 S.upf


CELL_PARAMETERS alat
       3.18517668      -0.00000000       0.00000000
      -1.59258834       2.75844392       0.00000000
       0.00000000       0.00000000      24.00000000

ATOMIC_POSITIONS crystal
Mo                   0.6666666666       0.3333333333       0.5000000000
S                    0.0000000000       0.0000000000       0.5651240739
S                    0.0000000000       0.0000000000       0.4348759261


K_POINTS crystal
324
  0.000000000000  0.000000000000  0.000000000000  3.086420e-03
  0.000000000000  0.055555555556  0.000000000000  3.086420e-03
  0.000000000000  0.111111111111  0.000000000000  3.086420e-03
  0.000000000000  0.166666666667  0.000000000000  3.086420e-03
  0.000000000000  0.222222222222  0.000000000000  3.086420e-03
  0.000000000000  0.277777777778  0.000000000000  3.086420e-03
  0.000000000000  0.333333333333  0.000000000000  3.086420e-03
  0.000000000000  0.388888888889  0.000000000000  3.086420e-03
  0.000000000000  0.444444444444  0.000000000000  3.086420e-03
  0.000000000000  0.500000000000  0.000000000000  3.086420e-03
  0.000000000000  0.555555555556  0.000000000000  3.086420e-03
  0.000000000000  0.611111111111  0.000000000000  3.086420e-03
  0.000000000000  0.666666666667  0.000000000000  3.086420e-03
  0.000000000000  0.722222222222  0.000000000000  3.086420e-03
  0.000000000000  0.777777777778  0.000000000000  3.086420e-03
  0.000000000000  0.833333333333  0.000000000000  3.086420e-03
  0.000000000000  0.888888888889  0.000000000000  3.086420e-03
  0.000000000000  0.944444444444  0.000000000000  3.086420e-03
  0.055555555556  0.000000000000  0.000000000000  3.086420e-03
  0.055555555556  0.055555555556  0.000000000000  3.086420e-03
  0.055555555556  0.111111111111  0.000000000000  3.086420e-03
  0.055555555556  0.166666666667  0.000000000000  3.086420e-03
  0.055555555556  0.222222222222  0.000000000000  3.086420e-03
  0.055555555556  0.277777777778  0.000000000000  3.086420e-03
  0.055555555556  0.333333333333  0.000000000000  3.086420e-03
  0.055555555556  0.388888888889  0.000000000000  3.086420e-03
  0.055555555556  0.444444444444  0.000000000000  3.086420e-03
  0.055555555556  0.500000000000  0.000000000000  3.086420e-03
  0.055555555556  0.555555555556  0.000000000000  3.086420e-03
  0.055555555556  0.611111111111  0.000000000000  3.086420e-03
  0.055555555556  0.666666666667  0.000000000000  3.086420e-03
  0.055555555556  0.722222222222  0.000000000000  3.086420e-03
  0.055555555556  0.777777777778  0.000000000000  3.086420e-03
  0.055555555556  0.833333333333  0.000000000000  3.086420e-03
  0.055555555556  0.888888888889  0.000000000000  3.086420e-03
  0.055555555556  0.944444444444  0.000000000000  3.086420e-03
  0.111111111111  0.000000000000  0.000000000000  3.086420e-03
  0.111111111111  0.055555555556  0.000000000000  3.086420e-03
  0.111111111111  0.111111111111  0.000000000000  3.086420e-03
  0.111111111111  0.166666666667  0.000000000000  3.086420e-03
  0.111111111111  0.222222222222  0.000000000000  3.086420e-03
  0.111111111111  0.277777777778  0.000000000000  3.086420e-03
  0.111111111111  0.333333333333  0.000000000000  3.086420e-03
  0.111111111111  0.388888888889  0.000000000000  3.086420e-03
  0.111111111111  0.444444444444  0.000000000000  3.086420e-03
  0.111111111111  0.500000000000  0.000000000000  3.086420e-03
  0.111111111111  0.555555555556  0.000000000000  3.086420e-03
  0.111111111111  0.611111111111  0.000000000000  3.086420e-03
  0.111111111111  0.666666666667  0.000000000000  3.086420e-03
  0.111111111111  0.722222222222  0.000000000000  3.086420e-03
  0.111111111111  0.777777777778  0.000000000000  3.086420e-03
  0.111111111111  0.833333333333  0.000000000000  3.086420e-03
  0.111111111111  0.888888888889  0.000000000000  3.086420e-03
  0.111111111111  0.944444444444  0.000000000000  3.086420e-03
  0.166666666667  0.000000000000  0.000000000000  3.086420e-03
  0.166666666667  0.055555555556  0.000000000000  3.086420e-03
  0.166666666667  0.111111111111  0.000000000000  3.086420e-03
  0.166666666667  0.166666666667  0.000000000000  3.086420e-03
  0.166666666667  0.222222222222  0.000000000000  3.086420e-03
  0.166666666667  0.277777777778  0.000000000000  3.086420e-03
  0.166666666667  0.333333333333  0.000000000000  3.086420e-03
  0.166666666667  0.388888888889  0.000000000000  3.086420e-03
  0.166666666667  0.444444444444  0.000000000000  3.086420e-03
  0.166666666667  0.500000000000  0.000000000000  3.086420e-03
  0.166666666667  0.555555555556  0.000000000000  3.086420e-03
  0.166666666667  0.611111111111  0.000000000000  3.086420e-03
  0.166666666667  0.666666666667  0.000000000000  3.086420e-03
  0.166666666667  0.722222222222  0.000000000000  3.086420e-03
  0.166666666667  0.777777777778  0.000000000000  3.086420e-03
  0.166666666667  0.833333333333  0.000000000000  3.086420e-03
  0.166666666667  0.888888888889  0.000000000000  3.086420e-03
  0.166666666667  0.944444444444  0.000000000000  3.086420e-03
  0.222222222222  0.000000000000  0.000000000000  3.086420e-03
  0.222222222222  0.055555555556  0.000000000000  3.086420e-03
  0.222222222222  0.111111111111  0.000000000000  3.086420e-03
  0.222222222222  0.166666666667  0.000000000000  3.086420e-03
  0.222222222222  0.222222222222  0.000000000000  3.086420e-03
  0.222222222222  0.277777777778  0.000000000000  3.086420e-03
  0.222222222222  0.333333333333  0.000000000000  3.086420e-03
  0.222222222222  0.388888888889  0.000000000000  3.086420e-03
  0.222222222222  0.444444444444  0.000000000000  3.086420e-03
  0.222222222222  0.500000000000  0.000000000000  3.086420e-03
  0.222222222222  0.555555555556  0.000000000000  3.086420e-03
  0.222222222222  0.611111111111  0.000000000000  3.086420e-03
  0.222222222222  0.666666666667  0.000000000000  3.086420e-03
  0.222222222222  0.722222222222  0.000000000000  3.086420e-03
  0.222222222222  0.777777777778  0.000000000000  3.086420e-03
  0.222222222222  0.833333333333  0.000000000000  3.086420e-03
  0.222222222222  0.888888888889  0.000000000000  3.086420e-03
  0.222222222222  0.944444444444  0.000000000000  3.086420e-03
  0.277777777778  0.000000000000  0.000000000000  3.086420e-03
  0.277777777778  0.055555555556  0.000000000000  3.086420e-03
  0.277777777778  0.111111111111  0.000000000000  3.086420e-03
  0.277777777778  0.166666666667  0.000000000000  3.086420e-03
  0.277777777778  0.222222222222  0.000000000000  3.086420e-03
  0.277777777778  0.277777777778  0.000000000000  3.086420e-03
  0.277777777778  0.333333333333  0.000000000000  3.086420e-03
  0.277777777778  0.388888888889  0.000000000000  3.086420e-03
  0.277777777778  0.444444444444  0.000000000000  3.086420e-03
  0.277777777778  0.500000000000  0.000000000000  3.086420e-03
  0.277777777778  0.555555555556  0.000000000000  3.086420e-03
  0.277777777778  0.611111111111  0.000000000000  3.086420e-03
  0.277777777778  0.666666666667  0.000000000000  3.086420e-03
  0.277777777778  0.722222222222  0.000000000000  3.086420e-03
  0.277777777778  0.777777777778  0.000000000000  3.086420e-03
  0.277777777778  0.833333333333  0.000000000000  3.086420e-03
  0.277777777778  0.888888888889  0.000000000000  3.086420e-03
  0.277777777778  0.944444444444  0.000000000000  3.086420e-03
  0.333333333333  0.000000000000  0.000000000000  3.086420e-03
  0.333333333333  0.055555555556  0.000000000000  3.086420e-03
  0.333333333333  0.111111111111  0.000000000000  3.086420e-03
  0.333333333333  0.166666666667  0.000000000000  3.086420e-03
  0.333333333333  0.222222222222  0.000000000000  3.086420e-03
  0.333333333333  0.277777777778  0.000000000000  3.086420e-03
  0.333333333333  0.333333333333  0.000000000000  3.086420e-03
  0.333333333333  0.388888888889  0.000000000000  3.086420e-03
  0.333333333333  0.444444444444  0.000000000000  3.086420e-03
  0.333333333333  0.500000000000  0.000000000000  3.086420e-03
  0.333333333333  0.555555555556  0.000000000000  3.086420e-03
  0.333333333333  0.611111111111  0.000000000000  3.086420e-03
  0.333333333333  0.666666666667  0.000000000000  3.086420e-03
  0.333333333333  0.722222222222  0.000000000000  3.086420e-03
  0.333333333333  0.777777777778  0.000000000000  3.086420e-03
  0.333333333333  0.833333333333  0.000000000000  3.086420e-03
  0.333333333333  0.888888888889  0.000000000000  3.086420e-03
  0.333333333333  0.944444444444  0.000000000000  3.086420e-03
  0.388888888889  0.000000000000  0.000000000000  3.086420e-03
  0.388888888889  0.055555555556  0.000000000000  3.086420e-03
  0.388888888889  0.111111111111  0.000000000000  3.086420e-03
  0.388888888889  0.166666666667  0.000000000000  3.086420e-03
  0.388888888889  0.222222222222  0.000000000000  3.086420e-03
  0.388888888889  0.277777777778  0.000000000000  3.086420e-03
  0.388888888889  0.333333333333  0.000000000000  3.086420e-03
  0.388888888889  0.388888888889  0.000000000000  3.086420e-03
  0.388888888889  0.444444444444  0.000000000000  3.086420e-03
  0.388888888889  0.500000000000  0.000000000000  3.086420e-03
  0.388888888889  0.555555555556  0.000000000000  3.086420e-03
  0.388888888889  0.611111111111  0.000000000000  3.086420e-03
  0.388888888889  0.666666666667  0.000000000000  3.086420e-03
  0.388888888889  0.722222222222  0.000000000000  3.086420e-03
  0.388888888889  0.777777777778  0.000000000000  3.086420e-03
  0.388888888889  0.833333333333  0.000000000000  3.086420e-03
  0.388888888889  0.888888888889  0.000000000000  3.086420e-03
  0.388888888889  0.944444444444  0.000000000000  3.086420e-03
  0.444444444444  0.000000000000  0.000000000000  3.086420e-03
  0.444444444444  0.055555555556  0.000000000000  3.086420e-03
  0.444444444444  0.111111111111  0.000000000000  3.086420e-03
  0.444444444444  0.166666666667  0.000000000000  3.086420e-03
  0.444444444444  0.222222222222  0.000000000000  3.086420e-03
  0.444444444444  0.277777777778  0.000000000000  3.086420e-03
  0.444444444444  0.333333333333  0.000000000000  3.086420e-03
  0.444444444444  0.388888888889  0.000000000000  3.086420e-03
  0.444444444444  0.444444444444  0.000000000000  3.086420e-03
  0.444444444444  0.500000000000  0.000000000000  3.086420e-03
  0.444444444444  0.555555555556  0.000000000000  3.086420e-03
  0.444444444444  0.611111111111  0.000000000000  3.086420e-03
  0.444444444444  0.666666666667  0.000000000000  3.086420e-03
  0.444444444444  0.722222222222  0.000000000000  3.086420e-03
  0.444444444444  0.777777777778  0.000000000000  3.086420e-03
  0.444444444444  0.833333333333  0.000000000000  3.086420e-03
  0.444444444444  0.888888888889  0.000000000000  3.086420e-03
  0.444444444444  0.944444444444  0.000000000000  3.086420e-03
  0.500000000000  0.000000000000  0.000000000000  3.086420e-03
  0.500000000000  0.055555555556  0.000000000000  3.086420e-03
  0.500000000000  0.111111111111  0.000000000000  3.086420e-03
  0.500000000000  0.166666666667  0.000000000000  3.086420e-03
  0.500000000000  0.222222222222  0.000000000000  3.086420e-03
  0.500000000000  0.277777777778  0.000000000000  3.086420e-03
  0.500000000000  0.333333333333  0.000000000000  3.086420e-03
  0.500000000000  0.388888888889  0.000000000000  3.086420e-03
  0.500000000000  0.444444444444  0.000000000000  3.086420e-03
  0.500000000000  0.500000000000  0.000000000000  3.086420e-03
  0.500000000000  0.555555555556  0.000000000000  3.086420e-03
  0.500000000000  0.611111111111  0.000000000000  3.086420e-03
  0.500000000000  0.666666666667  0.000000000000  3.086420e-03
  0.500000000000  0.722222222222  0.000000000000  3.086420e-03
  0.500000000000  0.777777777778  0.000000000000  3.086420e-03
  0.500000000000  0.833333333333  0.000000000000  3.086420e-03
  0.500000000000  0.888888888889  0.000000000000  3.086420e-03
  0.500000000000  0.944444444444  0.000000000000  3.086420e-03
  0.555555555556  0.000000000000  0.000000000000  3.086420e-03
  0.555555555556  0.055555555556  0.000000000000  3.086420e-03
  0.555555555556  0.111111111111  0.000000000000  3.086420e-03
  0.555555555556  0.166666666667  0.000000000000  3.086420e-03
  0.555555555556  0.222222222222  0.000000000000  3.086420e-03
  0.555555555556  0.277777777778  0.000000000000  3.086420e-03
  0.555555555556  0.333333333333  0.000000000000  3.086420e-03
  0.555555555556  0.388888888889  0.000000000000  3.086420e-03
  0.555555555556  0.444444444444  0.000000000000  3.086420e-03
  0.555555555556  0.500000000000  0.000000000000  3.086420e-03
  0.555555555556  0.555555555556  0.000000000000  3.086420e-03
  0.555555555556  0.611111111111  0.000000000000  3.086420e-03
  0.555555555556  0.666666666667  0.000000000000  3.086420e-03
  0.555555555556  0.722222222222  0.000000000000  3.086420e-03
  0.555555555556  0.777777777778  0.000000000000  3.086420e-03
  0.555555555556  0.833333333333  0.000000000000  3.086420e-03
  0.555555555556  0.888888888889  0.000000000000  3.086420e-03
  0.555555555556  0.944444444444  0.000000000000  3.086420e-03
  0.611111111111  0.000000000000  0.000000000000  3.086420e-03
  0.611111111111  0.055555555556  0.000000000000  3.086420e-03
  0.611111111111  0.111111111111  0.000000000000  3.086420e-03
  0.611111111111  0.166666666667  0.000000000000  3.086420e-03
  0.611111111111  0.222222222222  0.000000000000  3.086420e-03
  0.611111111111  0.277777777778  0.000000000000  3.086420e-03
  0.611111111111  0.333333333333  0.000000000000  3.086420e-03
  0.611111111111  0.388888888889  0.000000000000  3.086420e-03
  0.611111111111  0.444444444444  0.000000000000  3.086420e-03
  0.611111111111  0.500000000000  0.000000000000  3.086420e-03
  0.611111111111  0.555555555556  0.000000000000  3.086420e-03
  0.611111111111  0.611111111111  0.000000000000  3.086420e-03
  0.611111111111  0.666666666667  0.000000000000  3.086420e-03
  0.611111111111  0.722222222222  0.000000000000  3.086420e-03
  0.611111111111  0.777777777778  0.000000000000  3.086420e-03
  0.611111111111  0.833333333333  0.000000000000  3.086420e-03
  0.611111111111  0.888888888889  0.000000000000  3.086420e-03
  0.611111111111  0.944444444444  0.000000000000  3.086420e-03
  0.666666666667  0.000000000000  0.000000000000  3.086420e-03
  0.666666666667  0.055555555556  0.000000000000  3.086420e-03
  0.666666666667  0.111111111111  0.000000000000  3.086420e-03
  0.666666666667  0.166666666667  0.000000000000  3.086420e-03
  0.666666666667  0.222222222222  0.000000000000  3.086420e-03
  0.666666666667  0.277777777778  0.000000000000  3.086420e-03
  0.666666666667  0.333333333333  0.000000000000  3.086420e-03
  0.666666666667  0.388888888889  0.000000000000  3.086420e-03
  0.666666666667  0.444444444444  0.000000000000  3.086420e-03
  0.666666666667  0.500000000000  0.000000000000  3.086420e-03
  0.666666666667  0.555555555556  0.000000000000  3.086420e-03
  0.666666666667  0.611111111111  0.000000000000  3.086420e-03
  0.666666666667  0.666666666667  0.000000000000  3.086420e-03
  0.666666666667  0.722222222222  0.000000000000  3.086420e-03
  0.666666666667  0.777777777778  0.000000000000  3.086420e-03
  0.666666666667  0.833333333333  0.000000000000  3.086420e-03
  0.666666666667  0.888888888889  0.000000000000  3.086420e-03
  0.666666666667  0.944444444444  0.000000000000  3.086420e-03
  0.722222222222  0.000000000000  0.000000000000  3.086420e-03
  0.722222222222  0.055555555556  0.000000000000  3.086420e-03
  0.722222222222  0.111111111111  0.000000000000  3.086420e-03
  0.722222222222  0.166666666667  0.000000000000  3.086420e-03
  0.722222222222  0.222222222222  0.000000000000  3.086420e-03
  0.722222222222  0.277777777778  0.000000000000  3.086420e-03
  0.722222222222  0.333333333333  0.000000000000  3.086420e-03
  0.722222222222  0.388888888889  0.000000000000  3.086420e-03
  0.722222222222  0.444444444444  0.000000000000  3.086420e-03
  0.722222222222  0.500000000000  0.000000000000  3.086420e-03
  0.722222222222  0.555555555556  0.000000000000  3.086420e-03
  0.722222222222  0.611111111111  0.000000000000  3.086420e-03
  0.722222222222  0.666666666667  0.000000000000  3.086420e-03
  0.722222222222  0.722222222222  0.000000000000  3.086420e-03
  0.722222222222  0.777777777778  0.000000000000  3.086420e-03
  0.722222222222  0.833333333333  0.000000000000  3.086420e-03
  0.722222222222  0.888888888889  0.000000000000  3.086420e-03
  0.722222222222  0.944444444444  0.000000000000  3.086420e-03
  0.777777777778  0.000000000000  0.000000000000  3.086420e-03
  0.777777777778  0.055555555556  0.000000000000  3.086420e-03
  0.777777777778  0.111111111111  0.000000000000  3.086420e-03
  0.777777777778  0.166666666667  0.000000000000  3.086420e-03
  0.777777777778  0.222222222222  0.000000000000  3.086420e-03
  0.777777777778  0.277777777778  0.000000000000  3.086420e-03
  0.777777777778  0.333333333333  0.000000000000  3.086420e-03
  0.777777777778  0.388888888889  0.000000000000  3.086420e-03
  0.777777777778  0.444444444444  0.000000000000  3.086420e-03
  0.777777777778  0.500000000000  0.000000000000  3.086420e-03
  0.777777777778  0.555555555556  0.000000000000  3.086420e-03
  0.777777777778  0.611111111111  0.000000000000  3.086420e-03
  0.777777777778  0.666666666667  0.000000000000  3.086420e-03
  0.777777777778  0.722222222222  0.000000000000  3.086420e-03
  0.777777777778  0.777777777778  0.000000000000  3.086420e-03
  0.777777777778  0.833333333333  0.000000000000  3.086420e-03
  0.777777777778  0.888888888889  0.000000000000  3.086420e-03
  0.777777777778  0.944444444444  0.000000000000  3.086420e-03
  0.833333333333  0.000000000000  0.000000000000  3.086420e-03
  0.833333333333  0.055555555556  0.000000000000  3.086420e-03
  0.833333333333  0.111111111111  0.000000000000  3.086420e-03
  0.833333333333  0.166666666667  0.000000000000  3.086420e-03
  0.833333333333  0.222222222222  0.000000000000  3.086420e-03
  0.833333333333  0.277777777778  0.000000000000  3.086420e-03
  0.833333333333  0.333333333333  0.000000000000  3.086420e-03
  0.833333333333  0.388888888889  0.000000000000  3.086420e-03
  0.833333333333  0.444444444444  0.000000000000  3.086420e-03
  0.833333333333  0.500000000000  0.000000000000  3.086420e-03
  0.833333333333  0.555555555556  0.000000000000  3.086420e-03
  0.833333333333  0.611111111111  0.000000000000  3.086420e-03
  0.833333333333  0.666666666667  0.000000000000  3.086420e-03
  0.833333333333  0.722222222222  0.000000000000  3.086420e-03
  0.833333333333  0.777777777778  0.000000000000  3.086420e-03
  0.833333333333  0.833333333333  0.000000000000  3.086420e-03
  0.833333333333  0.888888888889  0.000000000000  3.086420e-03
  0.833333333333  0.944444444444  0.000000000000  3.086420e-03
  0.888888888889  0.000000000000  0.000000000000  3.086420e-03
  0.888888888889  0.055555555556  0.000000000000  3.086420e-03
  0.888888888889  0.111111111111  0.000000000000  3.086420e-03
  0.888888888889  0.166666666667  0.000000000000  3.086420e-03
  0.888888888889  0.222222222222  0.000000000000  3.086420e-03
  0.888888888889  0.277777777778  0.000000000000  3.086420e-03
  0.888888888889  0.333333333333  0.000000000000  3.086420e-03
  0.888888888889  0.388888888889  0.000000000000  3.086420e-03
  0.888888888889  0.444444444444  0.000000000000  3.086420e-03
  0.888888888889  0.500000000000  0.000000000000  3.086420e-03
  0.888888888889  0.555555555556  0.000000000000  3.086420e-03
  0.888888888889  0.611111111111  0.000000000000  3.086420e-03
  0.888888888889  0.666666666667  0.000000000000  3.086420e-03
  0.888888888889  0.722222222222  0.000000000000  3.086420e-03
  0.888888888889  0.777777777778  0.000000000000  3.086420e-03
  0.888888888889  0.833333333333  0.000000000000  3.086420e-03
  0.888888888889  0.888888888889  0.000000000000  3.086420e-03
  0.888888888889  0.944444444444  0.000000000000  3.086420e-03
  0.944444444444  0.000000000000  0.000000000000  3.086420e-03
  0.944444444444  0.055555555556  0.000000000000  3.086420e-03
  0.944444444444  0.111111111111  0.000000000000  3.086420e-03
  0.944444444444  0.166666666667  0.000000000000  3.086420e-03
  0.944444444444  0.222222222222  0.000000000000  3.086420e-03
  0.944444444444  0.277777777778  0.000000000000  3.086420e-03
  0.944444444444  0.333333333333  0.000000000000  3.086420e-03
  0.944444444444  0.388888888889  0.000000000000  3.086420e-03
  0.944444444444  0.444444444444  0.000000000000  3.086420e-03
  0.944444444444  0.500000000000  0.000000000000  3.086420e-03
  0.944444444444  0.555555555556  0.000000000000  3.086420e-03
  0.944444444444  0.611111111111  0.000000000000  3.086420e-03
  0.944444444444  0.666666666667  0.000000000000  3.086420e-03
  0.944444444444  0.722222222222  0.000000000000  3.086420e-03
  0.944444444444  0.777777777778  0.000000000000  3.086420e-03
  0.944444444444  0.833333333333  0.000000000000  3.086420e-03
  0.944444444444  0.888888888889  0.000000000000  3.086420e-03
  0.944444444444  0.944444444444  0.000000000000  3.086420e-03
