
&control
   calculation = 'scf'
   verbosity='high'
   restart_mode='from_scratch',
   prefix='mos2',
   pseudo_dir = '  /home/can/run/2-lu-defect-FFT-scattering/pseudo',
 
   outdir='dout/'
/
&system
    ibrav=  0, 
    A=3.09
    nat=  147, ntyp= 5,
    ecutwfc =60.0,
    !nbnd=14
    occupations='smearing'
    smearing='gaussian'
    degauss=0.001
/
&electrons
    !electron_maxstep=2
    diagonalization='david'
    mixing_mode = 'plain'
    mixing_beta = 0.7
    conv_thr =  1.0d-6
/

&ions
/


&cell
cell_dofree='2Dxy'
/


&calcmcontrol

kpoint_initial=4
kpoint_final=10
bnd_initial=10
bnd_final=10
vperturb_filename='vloc.dat'
eps_filename='eps.dat'
/


ATOMIC_SPECIES
Mo    95.96   Mo.pw-mt_fhi.UPF
S     32.06    S.pw-mt_fhi.UPF
W    183.84    W.pw-mt_fhi.UPF
Se    78.96   Se.pw-mt_fhi.UPF
O     16.00    O.pw-mt_fhi.UPF

CELL_PARAMETERS alat
      7.0000000000       0.0000000000       0.0000000000
     -3.5000000000       6.0621778265       0.0000000000
      0.0000000000       0.0000000000       8.0000000000
ATOMIC_POSITIONS crystal
Mo          -0.0476190476      -0.0952380952       0.0000000000
S            0.0000000000       0.0000000000       0.0626550000
S            0.0000000000       0.0000000000      -0.0626550000
Mo          -0.0476190476       0.0476190476       0.0000000000
S            0.0000000000       0.1428571429       0.0626550000
S            0.0000000000       0.1428571429      -0.0626550000
Mo          -0.0476190476       0.1904761905       0.0000000000
S            0.0000000000       0.2857142857       0.0626550000
S            0.0000000000       0.2857142857      -0.0626550000
Mo          -0.0476190476       0.3333333333       0.0000000000
S            0.0000000000       0.4285714286       0.0626550000
S            0.0000000000       0.4285714286      -0.0626550000
Mo          -0.0476190476       0.4761904762       0.0000000000
S            0.0000000000       0.5714285714       0.0626550000
S            0.0000000000       0.5714285714      -0.0626550000
Mo          -0.0476190476       0.6190476190       0.0000000000
S            0.0000000000       0.7142857143       0.0626550000
S            0.0000000000       0.7142857143      -0.0626550000
Mo          -0.0476190476       0.7619047619       0.0000000000
S            0.0000000000       0.8571428571       0.0626550000
S            0.0000000000       0.8571428571      -0.0626550000
Mo           0.0952380952      -0.0952380952       0.0000000000
S            0.1428571429       0.0000000000       0.0626550000
S            0.1428571429       0.0000000000      -0.0626550000
Mo           0.0952380952       0.0476190476       0.0000000000
S            0.1428571429       0.1428571429       0.0626550000
S            0.1428571429       0.1428571429      -0.0626550000
Mo           0.0952380952       0.1904761905       0.0000000000
S            0.1428571429       0.2857142857       0.0626550000
S            0.1428571429       0.2857142857      -0.0626550000
Mo           0.0952380952       0.3333333333       0.0000000000
S            0.1428571429       0.4285714286       0.0626550000
S            0.1428571429       0.4285714286      -0.0626550000
Mo           0.0952380952       0.4761904762       0.0000000000
S            0.1428571429       0.5714285714       0.0626550000
S            0.1428571429       0.5714285714      -0.0626550000
Mo           0.0952380952       0.6190476190       0.0000000000
S            0.1428571429       0.7142857143       0.0626550000
S            0.1428571429       0.7142857143      -0.0626550000
Mo           0.0952380952       0.7619047619       0.0000000000
S            0.1428571429       0.8571428571       0.0626550000
S            0.1428571429       0.8571428571      -0.0626550000
Mo           0.2380952381      -0.0952380952       0.0000000000
S            0.2857142857       0.0000000000       0.0626550000
S            0.2857142857       0.0000000000      -0.0626550000
Mo           0.2380952381       0.0476190476       0.0000000000
S            0.2857142857       0.1428571429       0.0626550000
S            0.2857142857       0.1428571429      -0.0626550000
Mo           0.2380952381       0.1904761905       0.0000000000
S            0.2857142857       0.2857142857       0.0626550000
S            0.2857142857       0.2857142857      -0.0626550000
Mo           0.2380952381       0.3333333333       0.0000000000
S            0.2857142857       0.4285714286       0.0626550000
S            0.2857142857       0.4285714286      -0.0626550000
Mo           0.2380952381       0.4761904762       0.0000000000
S            0.2857142857       0.5714285714       0.0626550000
S            0.2857142857       0.5714285714      -0.0626550000
Mo           0.2380952381       0.6190476190       0.0000000000
S            0.2857142857       0.7142857143       0.0626550000
S            0.2857142857       0.7142857143      -0.0626550000
Mo           0.2380952381       0.7619047619       0.0000000000
S            0.2857142857       0.8571428571       0.0626550000
S            0.2857142857       0.8571428571      -0.0626550000
Mo           0.3809523810      -0.0952380952       0.0000000000
S            0.4285714286       0.0000000000       0.0626550000
S            0.4285714286       0.0000000000      -0.0626550000
Mo           0.3809523810       0.0476190476       0.0000000000
S            0.4285714286       0.1428571429       0.0626550000
S            0.4285714286       0.1428571429      -0.0626550000
Mo           0.3809523810       0.1904761905       0.0000000000
S            0.4285714286       0.2857142857       0.0626550000
S            0.4285714286       0.2857142857      -0.0626550000
Mo           0.3809523810       0.3333333333       0.0000000000
S            0.4285714286       0.4285714286       0.0626550000
S            0.4285714286       0.4285714286      -0.0626550000
Mo           0.3809523810       0.4761904762       0.0000000000
S            0.4285714286       0.5714285714       0.0626550000
S            0.4285714286       0.5714285714      -0.0626550000
Mo           0.3809523810       0.6190476190       0.0000000000
S            0.4285714286       0.7142857143       0.0626550000
S            0.4285714286       0.7142857143      -0.0626550000
Mo           0.3809523810       0.7619047619       0.0000000000
S            0.4285714286       0.8571428571       0.0626550000
S            0.4285714286       0.8571428571      -0.0626550000
Mo           0.5238095238      -0.0952380952       0.0000000000
S            0.5714285714       0.0000000000       0.0626550000
S            0.5714285714       0.0000000000      -0.0626550000
Mo           0.5238095238       0.0476190476       0.0000000000
S            0.5714285714       0.1428571429       0.0626550000
S            0.5714285714       0.1428571429      -0.0626550000
Mo           0.5238095238       0.1904761905       0.0000000000
S            0.5714285714       0.2857142857       0.0626550000
S            0.5714285714       0.2857142857      -0.0626550000
Mo           0.5238095238       0.3333333333       0.0000000000
S            0.5714285714       0.4285714286       0.0626550000
S            0.5714285714       0.4285714286      -0.0626550000
Mo           0.5238095238       0.4761904762       0.0000000000
S            0.5714285714       0.5714285714       0.0626550000
S            0.5714285714       0.5714285714      -0.0626550000
Mo           0.5238095238       0.6190476190       0.0000000000
S            0.5714285714       0.7142857143       0.0626550000
S            0.5714285714       0.7142857143      -0.0626550000
Mo           0.5238095238       0.7619047619       0.0000000000
S            0.5714285714       0.8571428571       0.0626550000
S            0.5714285714       0.8571428571      -0.0626550000
Mo           0.6666666667      -0.0952380952       0.0000000000
S            0.7142857143       0.0000000000       0.0626550000
S            0.7142857143       0.0000000000      -0.0626550000
Mo           0.6666666667       0.0476190476       0.0000000000
S            0.7142857143       0.1428571429       0.0626550000
S            0.7142857143       0.1428571429      -0.0626550000
Mo           0.6666666667       0.1904761905       0.0000000000
S            0.7142857143       0.2857142857       0.0626550000
S            0.7142857143       0.2857142857      -0.0626550000
Mo           0.6666666667       0.3333333333       0.0000000000
S            0.7142857143       0.4285714286       0.0626550000
S            0.7142857143       0.4285714286      -0.0626550000
Mo           0.6666666667       0.4761904762       0.0000000000
S            0.7142857143       0.5714285714       0.0626550000
S            0.7142857143       0.5714285714      -0.0626550000
Mo           0.6666666667       0.6190476190       0.0000000000
S            0.7142857143       0.7142857143       0.0626550000
S            0.7142857143       0.7142857143      -0.0626550000
Mo           0.6666666667       0.7619047619       0.0000000000
S            0.7142857143       0.8571428571       0.0626550000
S            0.7142857143       0.8571428571      -0.0626550000
Mo           0.8095238095      -0.0952380952       0.0000000000
S            0.8571428571       0.0000000000       0.0626550000
S            0.8571428571       0.0000000000      -0.0626550000
Mo           0.8095238095       0.0476190476       0.0000000000
S            0.8571428571       0.1428571429       0.0626550000
S            0.8571428571       0.1428571429      -0.0626550000
Mo           0.8095238095       0.1904761905       0.0000000000
S            0.8571428571       0.2857142857       0.0626550000
S            0.8571428571       0.2857142857      -0.0626550000
Mo           0.8095238095       0.3333333333       0.0000000000
S            0.8571428571       0.4285714286       0.0626550000
S            0.8571428571       0.4285714286      -0.0626550000
Mo           0.8095238095       0.4761904762       0.0000000000
S            0.8571428571       0.5714285714       0.0626550000
S            0.8571428571       0.5714285714      -0.0626550000
Mo           0.8095238095       0.6190476190       0.0000000000
S            0.8571428571       0.7142857143       0.0626550000
S            0.8571428571       0.7142857143      -0.0626550000
Mo           0.8095238095       0.7619047619       0.0000000000
S            0.8571428571       0.8571428571       0.0626550000
S            0.8571428571       0.8571428571      -0.0626550000

K_POINTS gamma
