
&control
   calculation = 'scf'
   verbosity='high'
   restart_mode='from_scratch',
   prefix='mos2',
   pseudo_dir = '  /home/can/run/2-lu-defect-FFT-scattering/pseudo',
 
   outdir='dout/'
/
&system
    ibrav=  0, 
    A=3.09
    nat=  243, ntyp= 5,
    ecutwfc =60.0,
    !nbnd=14
    occupations='smearing'
    smearing='gaussian'
    degauss=0.001
/
&electrons
    !electron_maxstep=2
    diagonalization='david'
    mixing_mode = 'plain'
    mixing_beta = 0.7
    conv_thr =  1.0d-6
/

&ions
/


&cell
cell_dofree='2Dxy'
/


&calcmcontrol

kpoint_initial=4
kpoint_final=10
bnd_initial=10
bnd_final=10
vperturb_filename='vloc.dat'
eps_filename='eps.dat'
/


ATOMIC_SPECIES
Mo    95.96   Mo.pw-mt_fhi.UPF
S     32.06    S.pw-mt_fhi.UPF
W    183.84    W.pw-mt_fhi.UPF
Se    78.96   Se.pw-mt_fhi.UPF
O     16.00    O.pw-mt_fhi.UPF

CELL_PARAMETERS alat
      9.0000000000       0.0000000000       0.0000000000
     -4.5000000000       7.7942286341       0.0000000000
      0.0000000000       0.0000000000       8.0000000000
ATOMIC_POSITIONS crystal
Mo          -0.0370370370      -0.0740740741       0.0000000000
S            0.0000000000       0.0000000000       0.0626550000
S            0.0000000000       0.0000000000      -0.0626550000
Mo          -0.0370370370       0.0370370370       0.0000000000
S            0.0000000000       0.1111111111       0.0626550000
S            0.0000000000       0.1111111111      -0.0626550000
Mo          -0.0370370370       0.1481481481       0.0000000000
S            0.0000000000       0.2222222222       0.0626550000
S            0.0000000000       0.2222222222      -0.0626550000
Mo          -0.0370370370       0.2592592593       0.0000000000
S            0.0000000000       0.3333333333       0.0626550000
S            0.0000000000       0.3333333333      -0.0626550000
Mo          -0.0370370370       0.3703703704       0.0000000000
S            0.0000000000       0.4444444444       0.0626550000
S            0.0000000000       0.4444444444      -0.0626550000
Mo          -0.0370370370       0.4814814815       0.0000000000
S            0.0000000000       0.5555555556       0.0626550000
S            0.0000000000       0.5555555556      -0.0626550000
Mo          -0.0370370370       0.5925925926       0.0000000000
S            0.0000000000       0.6666666667       0.0626550000
S            0.0000000000       0.6666666667      -0.0626550000
Mo          -0.0370370370       0.7037037037       0.0000000000
S            0.0000000000       0.7777777778       0.0626550000
S            0.0000000000       0.7777777778      -0.0626550000
Mo          -0.0370370370       0.8148148148       0.0000000000
S            0.0000000000       0.8888888889       0.0626550000
S            0.0000000000       0.8888888889      -0.0626550000
Mo           0.0740740741      -0.0740740741       0.0000000000
S            0.1111111111       0.0000000000       0.0626550000
S            0.1111111111       0.0000000000      -0.0626550000
Mo           0.0740740741       0.0370370370       0.0000000000
S            0.1111111111       0.1111111111       0.0626550000
S            0.1111111111       0.1111111111      -0.0626550000
Mo           0.0740740741       0.1481481481       0.0000000000
S            0.1111111111       0.2222222222       0.0626550000
S            0.1111111111       0.2222222222      -0.0626550000
Mo           0.0740740741       0.2592592593       0.0000000000
S            0.1111111111       0.3333333333       0.0626550000
S            0.1111111111       0.3333333333      -0.0626550000
Mo           0.0740740741       0.3703703704       0.0000000000
S            0.1111111111       0.4444444444       0.0626550000
S            0.1111111111       0.4444444444      -0.0626550000
Mo           0.0740740741       0.4814814815       0.0000000000
S            0.1111111111       0.5555555556       0.0626550000
S            0.1111111111       0.5555555556      -0.0626550000
Mo           0.0740740741       0.5925925926       0.0000000000
S            0.1111111111       0.6666666667       0.0626550000
S            0.1111111111       0.6666666667      -0.0626550000
Mo           0.0740740741       0.7037037037       0.0000000000
S            0.1111111111       0.7777777778       0.0626550000
S            0.1111111111       0.7777777778      -0.0626550000
Mo           0.0740740741       0.8148148148       0.0000000000
S            0.1111111111       0.8888888889       0.0626550000
S            0.1111111111       0.8888888889      -0.0626550000
Mo           0.1851851852      -0.0740740741       0.0000000000
S            0.2222222222       0.0000000000       0.0626550000
S            0.2222222222       0.0000000000      -0.0626550000
Mo           0.1851851852       0.0370370370       0.0000000000
S            0.2222222222       0.1111111111       0.0626550000
S            0.2222222222       0.1111111111      -0.0626550000
Mo           0.1851851852       0.1481481481       0.0000000000
S            0.2222222222       0.2222222222       0.0626550000
S            0.2222222222       0.2222222222      -0.0626550000
Mo           0.1851851852       0.2592592593       0.0000000000
S            0.2222222222       0.3333333333       0.0626550000
S            0.2222222222       0.3333333333      -0.0626550000
Mo           0.1851851852       0.3703703704       0.0000000000
S            0.2222222222       0.4444444444       0.0626550000
S            0.2222222222       0.4444444444      -0.0626550000
Mo           0.1851851852       0.4814814815       0.0000000000
S            0.2222222222       0.5555555556       0.0626550000
S            0.2222222222       0.5555555556      -0.0626550000
Mo           0.1851851852       0.5925925926       0.0000000000
S            0.2222222222       0.6666666667       0.0626550000
S            0.2222222222       0.6666666667      -0.0626550000
Mo           0.1851851852       0.7037037037       0.0000000000
S            0.2222222222       0.7777777778       0.0626550000
S            0.2222222222       0.7777777778      -0.0626550000
Mo           0.1851851852       0.8148148148       0.0000000000
S            0.2222222222       0.8888888889       0.0626550000
S            0.2222222222       0.8888888889      -0.0626550000
Mo           0.2962962963      -0.0740740741       0.0000000000
S            0.3333333333       0.0000000000       0.0626550000
S            0.3333333333       0.0000000000      -0.0626550000
Mo           0.2962962963       0.0370370370       0.0000000000
S            0.3333333333       0.1111111111       0.0626550000
S            0.3333333333       0.1111111111      -0.0626550000
Mo           0.2962962963       0.1481481481       0.0000000000
S            0.3333333333       0.2222222222       0.0626550000
S            0.3333333333       0.2222222222      -0.0626550000
Mo           0.2962962963       0.2592592593       0.0000000000
S            0.3333333333       0.3333333333       0.0626550000
S            0.3333333333       0.3333333333      -0.0626550000
Mo           0.2962962963       0.3703703704       0.0000000000
S            0.3333333333       0.4444444444       0.0626550000
S            0.3333333333       0.4444444444      -0.0626550000
Mo           0.2962962963       0.4814814815       0.0000000000
S            0.3333333333       0.5555555556       0.0626550000
S            0.3333333333       0.5555555556      -0.0626550000
Mo           0.2962962963       0.5925925926       0.0000000000
S            0.3333333333       0.6666666667       0.0626550000
S            0.3333333333       0.6666666667      -0.0626550000
Mo           0.2962962963       0.7037037037       0.0000000000
S            0.3333333333       0.7777777778       0.0626550000
S            0.3333333333       0.7777777778      -0.0626550000
Mo           0.2962962963       0.8148148148       0.0000000000
S            0.3333333333       0.8888888889       0.0626550000
S            0.3333333333       0.8888888889      -0.0626550000
Mo           0.4074074074      -0.0740740741       0.0000000000
S            0.4444444444       0.0000000000       0.0626550000
S            0.4444444444       0.0000000000      -0.0626550000
Mo           0.4074074074       0.0370370370       0.0000000000
S            0.4444444444       0.1111111111       0.0626550000
S            0.4444444444       0.1111111111      -0.0626550000
Mo           0.4074074074       0.1481481481       0.0000000000
S            0.4444444444       0.2222222222       0.0626550000
S            0.4444444444       0.2222222222      -0.0626550000
Mo           0.4074074074       0.2592592593       0.0000000000
S            0.4444444444       0.3333333333       0.0626550000
S            0.4444444444       0.3333333333      -0.0626550000
Mo           0.4074074074       0.3703703704       0.0000000000
S            0.4444444444       0.4444444444       0.0626550000
S            0.4444444444       0.4444444444      -0.0626550000
Mo           0.4074074074       0.4814814815       0.0000000000
S            0.4444444444       0.5555555556       0.0626550000
S            0.4444444444       0.5555555556      -0.0626550000
Mo           0.4074074074       0.5925925926       0.0000000000
S            0.4444444444       0.6666666667       0.0626550000
S            0.4444444444       0.6666666667      -0.0626550000
Mo           0.4074074074       0.7037037037       0.0000000000
S            0.4444444444       0.7777777778       0.0626550000
S            0.4444444444       0.7777777778      -0.0626550000
Mo           0.4074074074       0.8148148148       0.0000000000
S            0.4444444444       0.8888888889       0.0626550000
S            0.4444444444       0.8888888889      -0.0626550000
Mo           0.5185185185      -0.0740740741       0.0000000000
S            0.5555555556       0.0000000000       0.0626550000
S            0.5555555556       0.0000000000      -0.0626550000
Mo           0.5185185185       0.0370370370       0.0000000000
S            0.5555555556       0.1111111111       0.0626550000
S            0.5555555556       0.1111111111      -0.0626550000
Mo           0.5185185185       0.1481481481       0.0000000000
S            0.5555555556       0.2222222222       0.0626550000
S            0.5555555556       0.2222222222      -0.0626550000
Mo           0.5185185185       0.2592592593       0.0000000000
S            0.5555555556       0.3333333333       0.0626550000
S            0.5555555556       0.3333333333      -0.0626550000
Mo           0.5185185185       0.3703703704       0.0000000000
S            0.5555555556       0.4444444444       0.0626550000
S            0.5555555556       0.4444444444      -0.0626550000
Mo           0.5185185185       0.4814814815       0.0000000000
S            0.5555555556       0.5555555556       0.0626550000
S            0.5555555556       0.5555555556      -0.0626550000
Mo           0.5185185185       0.5925925926       0.0000000000
S            0.5555555556       0.6666666667       0.0626550000
S            0.5555555556       0.6666666667      -0.0626550000
Mo           0.5185185185       0.7037037037       0.0000000000
S            0.5555555556       0.7777777778       0.0626550000
S            0.5555555556       0.7777777778      -0.0626550000
Mo           0.5185185185       0.8148148148       0.0000000000
S            0.5555555556       0.8888888889       0.0626550000
S            0.5555555556       0.8888888889      -0.0626550000
Mo           0.6296296296      -0.0740740741       0.0000000000
S            0.6666666667       0.0000000000       0.0626550000
S            0.6666666667       0.0000000000      -0.0626550000
Mo           0.6296296296       0.0370370370       0.0000000000
S            0.6666666667       0.1111111111       0.0626550000
S            0.6666666667       0.1111111111      -0.0626550000
Mo           0.6296296296       0.1481481481       0.0000000000
S            0.6666666667       0.2222222222       0.0626550000
S            0.6666666667       0.2222222222      -0.0626550000
Mo           0.6296296296       0.2592592593       0.0000000000
S            0.6666666667       0.3333333333       0.0626550000
S            0.6666666667       0.3333333333      -0.0626550000
Mo           0.6296296296       0.3703703704       0.0000000000
S            0.6666666667       0.4444444444       0.0626550000
S            0.6666666667       0.4444444444      -0.0626550000
Mo           0.6296296296       0.4814814815       0.0000000000
S            0.6666666667       0.5555555556       0.0626550000
S            0.6666666667       0.5555555556      -0.0626550000
Mo           0.6296296296       0.5925925926       0.0000000000
S            0.6666666667       0.6666666667       0.0626550000
S            0.6666666667       0.6666666667      -0.0626550000
Mo           0.6296296296       0.7037037037       0.0000000000
S            0.6666666667       0.7777777778       0.0626550000
S            0.6666666667       0.7777777778      -0.0626550000
Mo           0.6296296296       0.8148148148       0.0000000000
S            0.6666666667       0.8888888889       0.0626550000
S            0.6666666667       0.8888888889      -0.0626550000
Mo           0.7407407407      -0.0740740741       0.0000000000
S            0.7777777778       0.0000000000       0.0626550000
S            0.7777777778       0.0000000000      -0.0626550000
Mo           0.7407407407       0.0370370370       0.0000000000
S            0.7777777778       0.1111111111       0.0626550000
S            0.7777777778       0.1111111111      -0.0626550000
Mo           0.7407407407       0.1481481481       0.0000000000
S            0.7777777778       0.2222222222       0.0626550000
S            0.7777777778       0.2222222222      -0.0626550000
Mo           0.7407407407       0.2592592593       0.0000000000
S            0.7777777778       0.3333333333       0.0626550000
S            0.7777777778       0.3333333333      -0.0626550000
Mo           0.7407407407       0.3703703704       0.0000000000
S            0.7777777778       0.4444444444       0.0626550000
S            0.7777777778       0.4444444444      -0.0626550000
Mo           0.7407407407       0.4814814815       0.0000000000
S            0.7777777778       0.5555555556       0.0626550000
S            0.7777777778       0.5555555556      -0.0626550000
Mo           0.7407407407       0.5925925926       0.0000000000
S            0.7777777778       0.6666666667       0.0626550000
S            0.7777777778       0.6666666667      -0.0626550000
Mo           0.7407407407       0.7037037037       0.0000000000
S            0.7777777778       0.7777777778       0.0626550000
S            0.7777777778       0.7777777778      -0.0626550000
Mo           0.7407407407       0.8148148148       0.0000000000
S            0.7777777778       0.8888888889       0.0626550000
S            0.7777777778       0.8888888889      -0.0626550000
Mo           0.8518518519      -0.0740740741       0.0000000000
S            0.8888888889       0.0000000000       0.0626550000
S            0.8888888889       0.0000000000      -0.0626550000
Mo           0.8518518519       0.0370370370       0.0000000000
S            0.8888888889       0.1111111111       0.0626550000
S            0.8888888889       0.1111111111      -0.0626550000
Mo           0.8518518519       0.1481481481       0.0000000000
S            0.8888888889       0.2222222222       0.0626550000
S            0.8888888889       0.2222222222      -0.0626550000
Mo           0.8518518519       0.2592592593       0.0000000000
S            0.8888888889       0.3333333333       0.0626550000
S            0.8888888889       0.3333333333      -0.0626550000
Mo           0.8518518519       0.3703703704       0.0000000000
S            0.8888888889       0.4444444444       0.0626550000
S            0.8888888889       0.4444444444      -0.0626550000
Mo           0.8518518519       0.4814814815       0.0000000000
S            0.8888888889       0.5555555556       0.0626550000
S            0.8888888889       0.5555555556      -0.0626550000
Mo           0.8518518519       0.5925925926       0.0000000000
S            0.8888888889       0.6666666667       0.0626550000
S            0.8888888889       0.6666666667      -0.0626550000
Mo           0.8518518519       0.7037037037       0.0000000000
S            0.8888888889       0.7777777778       0.0626550000
S            0.8888888889       0.7777777778      -0.0626550000
Mo           0.8518518519       0.8148148148       0.0000000000
S            0.8888888889       0.8888888889       0.0626550000
S            0.8888888889       0.8888888889      -0.0626550000

K_POINTS gamma
